p cnf 2186 4108
-102 101 0
-1972 1973 0
-1580 -108 1582 0
-729 44 731 0
-2139 255 0
-889 890 0
-1146 1148 0
-661 668 0
-748 749 0
-1238 -79 1240 0
-1139 -305 0
-1950 135 1952 0
-1210 1212 0
-286 285 0
-1052 68 1054 0
-1231 79 1233 0
-1714 1715 0
-1330 1332 0
-426 427 0
29 562 0
-516 -26 518 0
-1309 -186 0
-128 1890 0
-2171 164 0
-490 491 0
-931 -251 932 0
-1855 246 1856 0
-2180 2181 0
-525 533 0
-1655 1657 0
-28 27 0
-1103 184 0
-1371 92 1373 0
-1424 -280 0
-1597 1598 0
-1213 1215 0
-1252 82 1254 0
-815 816 0
-1149 321 1150 0
-1779 -187 1781 0
-148 147 0
-1383 260 1384 0
-1014 1015 0
-1025 64 1027 0
-1904 -274 0
-529 535 0
-760 47 762 0
-1228 -220 0
-755 -235 756 0
-970 304 0
-935 936 0
-212 211 0
-245 -115 0
-400 11 0
-1814 -201 0
-1140 -304 1141 0
-892 897 0
-1339 1340 0
-352 353 0
-1183 196 0
-363 -214 0
-263 -127 0
322 1466 0
-2106 2107 0
-957 -279 0
93 1377 0
-1722 -262 0
-2132 -231 2133 0
-230 0
35 36 191 192 0
-806 -290 0
-1523 1524 0
-2096 -154 2098 0
-1514 269 1516 0
-138 1975 0
-199 -107 0
-181 1110 0
-1216 220 0
-873 55 875 0
-996 63 998 0
4 338 0
-1137 -303 1138 0
-2154 161 0
-2169 2172 0
64 1026 0
1 332 0
-1878 271 1880 0
-560 561 0
-738 235 739 0
-1707 1708 0
-439 442 0
-1045 -238 1046 0
-2079 -150 0
-500 -166 501 0
-592 285 594 0
-545 -214 0
-819 -318 820 0
-291 -69 0
-659 667 0
-653 276 654 0
-1146 320 0
-2034 143 2036 0
-102 1524 0
-802 804 0
-531 215 0
-162 161 0
-1027 65 1029 0
-253 0
-744 745 0
-1661 175 1663 0
-40 681 0
-2068 -248 0
-282 281 0
-436 223 0
-253 -101 0
-299 686 0
-1043 -237 1044 0
-2103 156 2105 0
-779 -266 780 0
-1269 -267 0
299 677 0
-486 487 0
-373 -7 375 0
-1914 1917 0
-24 23 0
-2157 2159 0
-2036 2040 0
-1011 1016 0
-824 179 826 0
-811 812 0
-1763 -309 0
-2134 158 2136 0
154 2101 0
-150 149 0
-1174 -174 0
-263 -137 0
-1961 -135 1963 0
-426 -15 0
-208 207 0
-1259 268 1261 0
-1437 1438 0
-1179 76 1181 0
-240 0
-594 286 596 0
-1918 -327 0
-995 996 0
-170 993 0
-1007 216 1008 0
-753 758 0
-1729 118 1731 0
-1643 112 1645 0
-176 1673 0
-145 2069 0
-213 -15 0
-14 423 0
-1398 -260 1399 0
-1723 -261 1724 0
-412 413 0
-1320 1321 0
-1199 1202 0
-85 1302 0
-1047 -239 1048 0
-1179 1180 0
-674 678 0
-1277 1282 0
-76 75 0
103 1538 0
-1770 187 1772 0
-1911 327 0
-2145 2146 0
-509 193 0
-981 169 983 0
100 1469 0
-1966 1968 0
-1325 1327 0
48 784 0
-149 2076 0
-941 944 0
-577 -234 578 0
-1898 -271 1899 0
-1600 207 1601 0
-260 259 0
56 904 0
-1829 1830 0
-253 -111 0
-405 286 0
-1606 -109 1608 0
-1358 -91 1360 0
-1289 -292 0
-882 886 0
-1246 1247 0
-233 -17 0
-29 573 0
-404 285 405 0
-1004 1009 0
31 587 0
-1065 -67 1067 0
-1180 195 1182 0
-832 -52 834 0
-2013 2014 0
-670 -278 0
-398 10 400 0
-542 545 0
40 672 0
-2 1 0
-1370 -244 0
-1828 221 1830 0
-1130 -71 1132 0
-584 585 0
-1571 1572 0
-1909 326 1911 0
-406 -10 408 0
-810 318 812 0
-1152 -319 1154 0
-1420 -96 0
-1046 1048 0
-122 121 0
-1354 243 1355 0
94 1402 0
-1813 -200 1814 0
-1755 1756 0
-1945 -211 0
-1035 239 0
-1589 108 1591 0
-2124 232 0
-62 1011 0
-2147 -160 0
-1790 124 1792 0
-2080 2081 0
-90 1357 0
-882 225 0
-609 612 0
-1696 1698 0
-1868 -246 1869 0
-1191 1196 0
-1479 -174 0
-949 958 0
-1376 1379 0
-508 26 0
-1356 1357 0
-1548 106 1549 0
-1227 -219 0
-1055 1056 0
-2021 2023 0
122 1770 0
-1229 78 1231 0
-1900 1904 0
-1478 -173 0
-840 -182 0
-1613 -207 1614 0
138 1980 0
-2032 -202 0
-953 960 0
86 1295 0
-1681 1682 0
-1297 1299 0
-1560 1563 0
-393 394 0
-1899 -272 1900 0
-1239 1240 0
-1662 176 1664 0
-1620 111 1622 0
-136 135 0
-1794 200 0
-69 1128 0
-926 -250 0
-1238 1241 0
-123 1831 0
-14 426 0
-1086 292 0
-256 255 0
-370 233 0
-154 2109 0
-2005 2008 0
-31 602 0
-1555 -105 1557 0
-1131 -72 1133 0
-230 1970 0
-320 319 0
-903 56 905 0
-84 1270 0
-1563 1566 0
-115 1691 0
-1505 1507 0
-346 -191 0
-219 -87 0
-24 497 0
-723 725 0
-1236 240 0
-2158 273 2159 0
-615 -287 616 0
-1306 1307 0
-2129 -158 0
-1004 217 0
-1347 241 1349 0
-785 786 0
-855 196 0
-1617 -209 1618 0
-866 -54 867 0
-1184 1189 0
-1249 -252 0
-1285 1286 0
-1932 1933 0
-92 1387 0
-572 -233 0
-1490 1491 0
-15 438 0
-182 181 0
-1290 1293 0
-605 609 0
-1891 -129 1893 0
-848 851 0
-2009 140 2011 0
-1892 1898 0
3 348 0
-838 -180 839 0
-1294 1295 0
-137 1994 0
99 1484 0
-1153 1154 0
-2169 163 2171 0
-1090 -290 1092 0
-711 712 0
-425 -14 0
-50 49 0
-1058 259 0
-1557 1558 0
44 730 0
-2139 2142 0
-1654 -324 0
-1478 1479 0
-1713 264 0
-1253 83 1255 0
-432 17 434 0
-1337 1338 0
-1677 1678 0
-1299 1301 0
-1727 -263 1728 0
-1940 1942 0
-631 -317 632 0
-234 233 0
-1880 272 0
-872 879 0
-2004 -296 2005 0
-57 948 0
-87 1334 0
-1079 1080 0
-111 1651 0
-195 -69 0
-594 600 0
-474 -22 476 0
-637 638 0
-697 -42 699 0
-1258 267 1260 0
-316 315 0
-507 26 509 0
-1716 -117 1718 0
-458 460 0
-1975 -253 0
-1044 -238 0
-1382 261 0
-1424 1427 0
-2065 2068 0
-1115 71 1117 0
134 1949 0
-96 95 0
-1001 215 1003 0
-1494 199 0
-800 -287 0
-548 -215 0
-1991 296 1992 0
24 505 0
-1729 1730 0
149 150 151 152 307 308 0
-424 -180 0
-1928 1929 0
-1287 1288 0
-1486 1487 0
-1440 305 1441 0
-442 -18 443 0
-1744 -120 0
-1749 1751 0
-105 1559 0
-434 18 436 0
123 1795 0
-1670 1672 0
-423 -179 0
-1913 1914 0
-469 275 470 0
-1288 -292 1290 0
-394 -265 0
-1107 1111 0
-1743 -119 0
-1890 1897 0
-1607 1611 0
-391 -9 393 0
-661 -275 663 0
-288 805 0
-1029 1030 0
-1268 -84 1269 0
275 653 0
-1448 1455 0
-644 40 646 0
-483 300 0
-383 387 0
-1327 -205 0
-446 447 0
-119 1745 0
-68 1073 0
-1373 93 1375 0
-1271 1273 0
-630 632 0
-2137 2141 0
-1389 1397 0
-2030 -201 2032 0
-46 45 0
-762 48 764 0
-1433 97 1435 0
-725 -204 726 0
-533 213 534 0
-650 653 0
-110 109 0
-786 50 788 0
-1820 125 1822 0
-2000 2003 0
159 2140 0
-179 424 0
-1538 1539 0
-1979 138 1981 0
-230 229 0
-2100 2101 0
-316 0
-1353 242 1354 0
-227 1695 0
-720 -44 0
-1519 269 1520 0
-1873 128 1875 0
65 1049 0
-743 238 0
-2164 2165 0
-1052 1060 0
143 2051 0
-1479 1481 0
-3 356 0
-1064 -66 1066 0
-591 34 593 0
-434 435 0
-1116 1124 0
-894 -224 0
-833 838 0
-1280 1281 0
-1920 -328 0
-687 -301 688 0
-1788 123 1790 0
-2156 162 2157 0
-1942 -209 1943 0
-368 8 370 0
-1721 1724 0
-118 1723 0
-510 26 511 0
-1933 211 1935 0
-922 -58 0
-1138 1141 0
-497 500 0
-837 840 0
-1464 1465 0
-335 4 0
-241 -69 0
-156 155 0
-2016 314 0
-1095 70 1097 0
-1804 1811 0
-1529 -104 1530 0
-1584 1585 0
-137 1974 0
-1789 1790 0
-1822 126 1824 0
-1021 1024 0
-1126 305 1127 0
-1001 1002 0
41 705 0
-1692 -227 0
-1846 128 1848 0
-1075 -259 0
-1041 -66 1042 0
-1808 1813 0
-1556 -106 1558 0
-1909 1910 0
-1604 -108 1606 0
-2172 2174 0
-1272 -268 1273 0
-1973 1974 0
-223 -43 0
-478 -275 479 0
109 1599 0
-643 39 645 0
-1624 243 1626 0
-1410 281 0
-1147 1149 0
-29 582 0
-2175 298 0
-247 -135 0
-2181 -297 2183 0
-203 429 0
-642 647 0
-83 1285 0
-82 81 0
-578 -235 0
-1651 1652 0
-1946 -211 1947 0
-1010 1011 0
-1530 1533 0
-703 -169 704 0
-1510 1511 0
-28 546 0
-336 4 337 0
-2136 159 2138 0
-1825 219 1827 0
-1068 1069 0
-1331 1333 0
-427 428 0
-724 -204 0
-1976 1977 0
-7 376 0
-279 -83 0
-1194 1195 0
-1437 305 0
-1073 1076 0
-44 723 0
-955 -278 957 0
-1053 1054 0
-1861 -128 1863 0
-1656 1658 0
-1907 325 1909 0
-132 1922 0
-667 -275 668 0
-464 21 466 0
-994 -172 0
-1050 1059 0
-71 1151 0
75 1205 0
-1252 1253 0
-1458 -307 0
-290 289 0
-73 1190 0
-1285 -84 1287 0
-2160 2161 0
17 446 0
-1718 1719 0
-33 625 0
-12 419 0
-610 613 0
-692 168 694 0
-1787 122 1789 0
-1840 1842 0
-50 801 0
-1481 -175 0
-1782 1783 0
11 402 0
-795 796 0
-120 0
-972 -301 974 0
-241 -79 0
-1237 -78 1239 0
-1772 188 1774 0
-228 1697 0
-1184 197 0
-1866 -246 0
-1243 -239 1244 0
-1054 257 1056 0
-774 -48 0
-2058 247 2059 0
-1155 -320 1157 0
-1761 1762 0
-2166 -273 0
-2029 -142 2031 0
-537 538 0
-1499 -102 0
-1503 1505 0
-2071 -148 0
1 0
-73 1167 0
-216 215 0
-772 -47 774 0
-1125 304 1126 0
-103 1553 0
-1164 173 1166 0
-1821 125 1823 0
-2086 2087 0
-1671 -176 1672 0
-1304 1305 0
-750 -235 752 0
-862 863 0
-1984 1991 0
-59 958 0
-834 -179 836 0
-420 421 0
-1773 188 0
-1629 1630 0
-79 1245 0
-534 214 535 0
-109 1631 0
-803 805 0
-139 2017 0
-1408 280 1410 0
-9 406 0
-512 194 0
-767 266 769 0
-361 363 0
28 553 0
-1881 130 1882 0
-505 25 507 0
-604 605 0
-1777 190 0
-1815 -199 1816 0
-388 266 0
-1954 1955 0
-598 285 599 0
-2052 2057 0
-1065 1070 0
-1512 1513 0
-2159 274 0
61 995 0
-1371 1372 0
-1837 -219 1838 0
-204 203 0
-277 -47 0
-121 1778 0
-1114 71 1116 0
-1990 295 1991 0
-159 2160 0
-2138 2139 0
-1851 246 0
62 996 0
135 136 137 138 253 254 255 256 0
-1051 67 1053 0
-1517 271 0
-1395 -261 0
-1069 1072 0
-443 -223 0
-1049 1050 0
-928 931 0
-1895 1896 0
-1254 1255 0
-1774 1777 0
-1133 1136 0
-1937 -133 1939 0
-59 971 0
-652 277 0
-1113 1114 0
-466 467 0
-940 277 941 0
-1463 98 0
-1539 105 1541 0
-1902 -272 1903 0
-61 1010 0
59 963 0
-671 672 0
-1312 87 1314 0
-1336 -90 0
-1637 1639 0
-943 278 944 0
-1233 1234 0
-730 45 732 0
-2079 2080 0
-1863 -245 0
-566 236 0
-429 -204 0
-791 792 0
-1579 188 0
-130 129 0
-1094 -292 0
-961 -279 962 0
-897 -224 898 0
-853 194 854 0
-428 -203 0
-1656 -325 0
-1763 1764 0
-2020 2022 0
-1899 1903 0
-1446 308 0
-18 455 0
-975 976 0
-257 1076 0
-334 335 0
-1659 114 1661 0
-1962 1963 0
-314 313 0
-761 47 763 0
-193 -35 0
-1762 1765 0
141 2025 0
-55 918 0
-1583 1587 0
-1982 1990 0
-1678 116 1680 0
-623 317 0
-1442 1446 0
-1058 1063 0
-858 859 0
-737 740 0
-2140 160 2141 0
-717 718 0
301 967 0
-1193 -76 1195 0
-56 55 0
-352 6 354 0
-922 923 0
-1076 -258 1077 0
-1524 1529 0
35 36 37 38 241 242 0
-1625 1626 0
-134 1942 0
-1002 216 1004 0
-1343 91 1345 0
-1484 1485 0
-843 844 0
-688 -302 0
-1096 181 1098 0
-459 461 0
-1363 1366 0
-1689 1690 0
-1747 1749 0
-710 203 712 0
-2153 161 2155 0
-2010 311 2012 0
-1831 -124 1833 0
-2130 -231 0
-129 1913 0
-732 46 734 0
-1403 95 1405 0
25 510 0
-529 214 531 0
-1950 1951 0
-1708 1713 0
-1809 1810 0
-1688 1691 0
-1027 1028 0
-251 1249 0
-1441 306 1442 0
-55 895 0
-1709 118 1710 0
-1485 101 1487 0
-585 586 0
-1905 130 1907 0
-491 166 493 0
-2134 2135 0
-1186 195 1187 0
-105 1568 0
-229 -125 0
-1275 -270 0
-874 56 876 0
-965 301 0
-191 -13 0
-1558 -293 0
-463 468 0
-769 770 0
154 2093 0
-2101 155 2103 0
-988 991 0
-183 -73 0
-705 42 707 0
-1489 197 1491 0
132 1925 0
-847 850 0
-2066 -146 2067 0
-2104 156 2106 0
-438 -16 440 0
56 883 0
37 641 0
-243 1639 0
-383 10 385 0
-952 -60 954 0
-1735 1736 0
-1513 1520 0
22 481 0
-745 754 0
-723 -203 724 0
-190 189 0
-2060 2061 0
-136 1966 0
-651 654 0
-1278 1279 0
-754 -46 755 0
-116 1715 0
-1497 1500 0
58 934 0
-2110 -155 0
-1915 -325 0
-836 837 0
-81 1264 0
-934 939 0
-1035 1036 0
-1260 268 1262 0
-1298 1300 0
-279 1428 0
-1487 102 1489 0
-1824 219 1826 0
-1880 1884 0
-1884 273 0
-956 957 0
-493 167 495 0
-1098 1102 0
-1438 1442 0
-42 0
-1161 1162 0
-1350 243 0
-777 779 0
-555 563 0
-1360 1361 0
-4 357 0
-2135 159 2137 0
-335 337 0
-124 1832 0
-15 427 0
321 1465 0
-2127 2128 0
-1742 -119 1744 0
-1365 1368 0
-116 115 0
-707 43 709 0
-718 721 0
-1345 1346 0
-1618 -210 0
-1685 1686 0
-731 45 733 0
-577 580 0
-996 1005 0
-1423 -279 1424 0
-1544 1545 0
-903 904 0
-1423 1426 0
-1564 1567 0
-1681 227 1683 0
-1078 -260 0
-1974 -138 0
-471 -20 473 0
-1846 1854 0
-727 -205 728 0
-300 299 0
-191 -23 0
-1233 80 1235 0
-1000 1007 0
-1087 1088 0
-2113 -211 0
-440 441 0
-751 -236 753 0
-1385 262 0
-645 646 0
-1694 -228 0
-632 -318 0
-1270 -267 1271 0
-267 1272 0
-6 373 0
-504 505 0
-581 -236 0
-1207 1208 0
-1390 -94 1392 0
-2041 222 0
-2120 158 0
-2053 2054 0
-2142 256 0
-765 766 0
-1066 -67 1068 0
-1536 -271 1537 0
-104 103 0
-1472 174 1474 0
-312 2023 0
-914 249 915 0
-465 469 0
-1736 282 1738 0
-1737 1738 0
-283 -129 0
71 1123 0
-1936 1937 0
-1212 1214 0
321 0
-828 831 0
-288 287 0
-1387 -93 1389 0
-563 233 564 0
-2046 -144 0
-1716 1717 0
-366 367 0
-629 631 0
-1280 292 0
217 1213 0
-1459 -305 1460 0
-571 572 0
-2008 -298 0
-238 1047 0
-244 1641 0
-1334 -88 0
-2120 2121 0
-1999 2002 0
-602 -32 604 0
-832 833 0
-978 -304 0
-1764 -310 0
-1221 -78 1223 0
-1505 -199 0
-691 692 0
-1878 1883 0
-2112 -156 2113 0
82 1253 0
-30 29 0
-1445 307 1446 0
-1903 -273 1904 0
-1869 -247 0
-2125 -156 2127 0
-275 -31 0
-977 -303 0
-1201 -197 0
-1357 1362 0
-660 -40 662 0
-1917 -326 1918 0
-325 1917 0
-254 1977 0
-112 1652 0
159 2152 0
-638 639 0
-481 299 483 0
-1341 1342 0
-1619 110 1621 0
-1806 -124 1808 0
-1560 -293 1561 0
-1082 290 0
-392 -10 394 0
-418 419 0
-153 2108 0
-617 618 0
-1144 319 1146 0
-205 -75 0
-1214 219 0
-1525 1526 0
-530 214 0
-44 745 0
-1396 -94 1397 0
-359 361 0
-189 -131 0
101 1508 0
55 903 0
-2113 2115 0
-918 -56 920 0
-1364 -242 0
-565 235 566 0
-1783 -189 0
-1318 206 1320 0
-825 826 0
-2186 -314 0
-164 163 0
-684 685 0
-1792 1797 0
39 671 0
-543 -28 544 0
-268 1274 0
-603 -33 605 0
-21 477 0
-1408 1414 0
-1506 -199 1507 0
112 1644 0
-1350 1355 0
-1451 1452 0
125 1843 0
-1986 296 1988 0
-1564 -295 0
-1272 1274 0
-588 33 590 0
-368 369 0
-2126 -157 2128 0
-2117 2122 0
-567 568 0
93 1401 0
-206 0
-488 489 0
-839 -181 840 0
-2054 146 2056 0
-1334 1335 0
-445 -224 0
-552 553 0
-1072 1075 0
-1198 -196 0
-1105 -181 1107 0
-90 89 0
-377 -233 0
-601 288 0
-1859 1864 0
-1659 1660 0
-1960 1961 0
-87 1326 0
-1523 -102 1525 0
-1417 1422 0
-877 878 0
-1013 1017 0
-924 -58 925 0
-1679 116 1681 0
-213 549 0
-584 -32 0
-1594 207 1596 0
-1197 -195 1198 0
-382 9 384 0
-1254 83 1256 0
-274 273 0
-880 223 881 0
-1953 229 1955 0
-2043 2048 0
-1843 1844 0
-147 2071 0
-1722 1725 0
-818 820 0
-865 -195 0
-414 415 0
-1108 -182 0
-1981 139 1983 0
-896 900 0
-1042 -237 0
-619 620 0
-1088 -289 1090 0
-1139 1142 0
-1260 1261 0
-1634 -112 0
-2168 2169 0
-864 -194 0
-2047 2050 0
-849 194 0
-1356 -90 1358 0
-1386 1387 0
-2027 2028 0
-16 15 0
52 824 0
-881 885 0
323 1467 0
-1970 -231 1971 0
-2013 312 2015 0
11 414 0
-53 887 0
-1323 1326 0
-618 315 620 0
-1361 -241 0
-1754 309 1756 0
-1968 1970 0
-1241 -80 1242 0
-621 316 623 0
-1728 -264 0
-2173 2175 0
-1769 1770 0
-347 -192 0
-681 686 0
-1128 1129 0
120 1754 0
-1801 201 1802 0
-340 341 0
-271 -117 0
-1206 1209 0
-317 819 0
-1251 -254 0
-1248 1249 0
-1122 305 0
-1666 178 0
-2094 2095 0
-1747 -281 1748 0
-587 32 589 0
-1852 1857 0
-685 688 0
-1832 1835 0
-1250 -253 0
-945 278 946 0
-544 547 0
-1268 1270 0
-4 3 0
-1410 1415 0
-8 378 0
-1531 1534 0
-1629 245 0
-1949 135 1951 0
164 2174 0
-1314 88 1316 0
-89 1356 0
-1695 1697 0
-1151 -72 1153 0
-1929 209 1931 0
-2089 -327 2091 0
51 841 0
-133 1960 0
-1438 306 0
-2062 -145 2064 0
-1421 -279 0
-820 -319 0
-72 1152 0
-1141 -305 1142 0
-1457 1461 0
-2078 -284 0
-67 1087 0
-449 20 451 0
-1636 1638 0
139 2009 0
-1315 205 1317 0
-34 626 0
-257 -57 0
-611 614 0
183 1298 0
-360 -6 361 0
-591 592 0
-323 1655 0
-1372 93 1374 0
-270 269 0
-588 597 0
43 729 0
-930 -250 931 0
-1460 -306 1461 0
-1378 1381 0
-1598 209 0
59 939 0
-1057 1058 0
-948 -58 950 0
-678 301 679 0
-13 425 0
-195 1202 0
-1261 269 1263 0
-951 959 0
160 2153 0
-589 33 591 0
-1014 -64 0
-107 1580 0
-1683 1684 0
-2150 -255 2151 0
-1562 1565 0
-1504 1506 0
-1860 -127 1862 0
-1932 210 1934 0
-1539 1548 0
-898 -225 0
-1977 -255 0
-23 496 0
-229 1968 0
108 1590 0
-138 137 0
-658 659 0
-1010 -62 1012 0
-895 -56 896 0
-542 -213 0
-645 40 0
155 2116 0
-1448 -97 1450 0
-1041 1043 0
-121 1803 0
-385 265 0
133 1948 0
-983 984 0
-342 343 0
145 146 147 148 263 264 0
-322 321 0
-110 1632 0
-1845 127 1847 0
-541 542 0
-804 806 0
-1569 -309 0
-140 2018 0
-2056 247 0
-2065 -247 0
-400 401 0
187 1775 0
-1308 1309 0
-1782 -188 0
-2154 2155 0
-1167 1168 0
-526 527 0
-1435 98 1437 0
-1120 304 1122 0
-1329 -206 0
-2075 2076 0
-1691 1693 0
-2115 -212 0
-64 63 0
-1294 86 1296 0
-318 821 0
-944 279 0
-1934 1935 0
-1688 -115 1690 0
-878 224 0
-1264 -82 1266 0
-2153 2156 0
-1784 -188 1785 0
-1492 1493 0
-1625 243 1627 0
-1518 104 1519 0
-1964 -136 1965 0
-2047 -221 0
-184 183 0
-603 608 0
-18 444 0
-929 932 0
-909 910 0
25 522 0
-248 247 0
-60 972 0
-261 -101 0
-992 -171 0
-1185 76 1186 0
40 650 0
-144 2061 0
-991 993 0
-1876 130 1878 0
-2090 -327 0
-109 1610 0
-593 594 0
-1093 1094 0
54 850 0
-777 -265 778 0
-668 -276 669 0
-677 300 678 0
-1204 -198 0
-349 5 351 0
-1808 -199 1810 0
-1984 295 1986 0
-1418 1419 0
-1897 -130 1898 0
-293 1565 0
-41 697 0
-690 167 692 0
-1295 183 1297 0
-1942 1944 0
-2185 2186 0
-582 -30 0
-1500 1502 0
-1034 239 1036 0
-1743 1744 0
-392 396 0
-410 -12 412 0
-199 -113 0
-35 633 0
-1607 -110 1609 0
-2146 2150 0
-776 778 0
-679 302 0
-1742 1745 0
-89 1336 0
-1804 -123 1806 0
-980 169 982 0
-2148 -255 0
-150 2080 0
-639 640 0
-870 -196 0
-518 521 0
-1242 1244 0
-1364 1367 0
-596 601 0
-407 -11 409 0
-2075 -149 0
-1894 -271 1896 0
-971 -60 973 0
-781 -267 782 0
-1367 -243 0
-823 824 0
-1293 -294 0
-522 523 0
-1669 1670 0
-1227 1228 0
-831 182 0
-60 59 0
-1751 -283 1752 0
-417 316 0
-1995 -139 1997 0
-261 -111 0
-798 -50 0
-174 0
-908 249 910 0
-124 123 0
-1994 1995 0
-362 -213 363 0
83 1276 0
-1105 1110 0
-2144 -159 2146 0
-219 -109 0
-934 59 936 0
-244 243 0
97 1439 0
-1910 327 1912 0
-1941 -209 0
-1031 1032 0
-1814 1818 0
-2178 2179 0
-766 266 768 0
-1449 -97 1451 0
-734 235 0
-1615 1618 0
-448 449 0
-1128 -70 1130 0
184 1300 0
-348 4 350 0
-1640 -245 0
-205 -53 0
-835 -180 837 0
-1483 -176 0
-595 286 0
-773 774 0
-523 27 525 0
291 1282 0
-652 655 0
-1540 105 1542 0
-1556 1560 0
-531 536 0
-1637 -243 1638 0
-511 193 512 0
-851 854 0
-390 395 0
-884 224 885 0
-730 735 0
-1648 325 1650 0
-2163 -162 2165 0
-170 169 0
-1881 1885 0
-1653 -323 0
-379 -234 0
-1230 79 1232 0
-179 -23 0
-1477 1480 0
-296 295 0
-301 -49 0
-1414 281 1415 0
-1803 1804 0
123 1819 0
-515 516 0
-1225 -218 1227 0
-394 397 0
110 1620 0
-374 375 0
-608 -34 609 0
-2117 157 2119 0
124 1820 0
-1070 -68 1071 0
-1744 1746 0
-803 -288 804 0
-1020 1023 0
-1987 1988 0
-1380 259 1381 0
-1511 104 1513 0
-2131 -158 2132 0
-699 700 0
-1118 1125 0
-578 581 0
-672 299 674 0
-38 37 0
-558 559 0
-829 180 830 0
-1337 -225 0
-768 267 770 0
-1469 173 1471 0
-1759 311 0
-155 2112 0
156 2117 0
-1466 1467 0
-1571 108 1573 0
-1082 1084 0
121 1787 0
-1958 231 0
-1665 1666 0
-2083 -308 0
-1378 259 1379 0
-1409 280 0
-1023 -217 1024 0
-499 501 0
-1148 321 0
-222 221 0
-328 0
-1791 1792 0
-54 888 0
-606 -34 0
-1806 1812 0
-1529 1532 0
-1869 1872 0
-225 -77 0
-1849 1850 0
-2112 2114 0
-844 848 0
-933 58 935 0
143 2039 0
-1074 -258 1075 0
-1348 242 1350 0
-1975 1976 0
27 552 0
-625 626 0
-42 718 0
-304 303 0
-307 -111 0
-1486 101 1488 0
55 879 0
-560 234 0
-1392 1393 0
-166 502 0
-733 46 0
-2055 146 0
-1611 1614 0
-84 83 0
-950 951 0
-875 56 877 0
-1464 321 0
-809 810 0
-1532 1535 0
-2099 -190 0
-1858 1859 0
-906 914 0
-1056 258 1058 0
323 0
39 647 0
-904 57 906 0
-2098 -189 0
-611 -285 612 0
-1037 -64 1039 0
-1490 197 1492 0
-241 -45 0
-2114 -211 2115 0
-2048 -144 2049 0
-1205 76 1207 0
-25 519 0
53 847 0
-1658 -326 0
-2042 2043 0
-1522 272 0
-49 799 0
-1143 72 1145 0
118 1730 0
-822 -320 0
-1996 -139 1998 0
-1413 280 1414 0
-50 0
-292 291 0
-1429 -281 1430 0
-625 -34 627 0
-1318 1319 0
-502 -167 503 0
-696 170 0
-635 -192 0
-1083 290 1084 0
-956 -278 0
-2162 -161 2164 0
-797 798 0
-1510 103 1512 0
-558 233 560 0
-1016 1019 0
-1178 1186 0
-1279 1283 0
-1533 -270 1534 0
-1643 1644 0
-34 33 0
-1080 1083 0
-1488 102 1490 0
-1783 1786 0
-998 64 1000 0
-893 -223 0
-759 760 0
-1176 75 1178 0
-375 377 0
-98 97 0
-1048 -240 0
-1200 1203 0
-1296 183 0
-539 540 0
-218 217 0
-2088 2089 0
-360 362 0
-880 884 0
-1116 72 1118 0
-265 779 0
-2152 2153 0
-2128 2132 0
-864 865 0
-1053 68 1055 0
-339 192 0
-1326 1328 0
-551 -216 0
-422 423 0
-942 945 0
-497 -165 499 0
-433 18 435 0
70 1114 0
-1925 133 1927 0
-1060 257 1061 0
-706 43 708 0
-519 -26 520 0
-1541 106 1543 0
-1022 -216 1023 0
-2035 2036 0
-27 543 0
-938 277 0
-626 629 0
-1247 1248 0
-152 2089 0
-505 510 0
-606 607 0
-1209 1211 0
-1665 177 0
-904 913 0
-241 -55 0
-2088 -152 2090 0
-2178 -163 2180 0
-144 143 0
-1586 -186 1587 0
-1470 173 1472 0
-1780 -187 1782 0
-1331 -207 0
-1651 -112 1653 0
-1835 1837 0
-215 1022 0
-815 -50 817 0
-1286 -291 1288 0
-908 915 0
-989 990 0
-348 349 0
-1131 1135 0
-328 327 0
131 1924 0
-88 1328 0
-389 -8 391 0
-37 656 0
-1115 1116 0
-1388 -93 1390 0
-1874 1881 0
-157 2131 0
-1566 -295 1567 0
-1314 1315 0
-673 674 0
-1456 1460 0
-8 390 0
-12 11 0
-46 772 0
-1444 306 1445 0
-2081 2082 0
-1596 1602 0
-70 69 0
-1101 182 1102 0
-1781 1785 0
-846 193 0
-1345 92 1347 0
-1498 1499 0
-1552 296 0
-736 739 0
-196 195 0
-879 56 880 0
-1703 1704 0
-1392 -259 1394 0
27 532 0
-279 -69 0
-1240 1242 0
-2151 -256 0
5 364 0
-1684 229 1686 0
-1823 1824 0
-1703 118 1705 0
-798 800 0
-1379 260 0
-1581 1586 0
-257 -45 0
-2123 231 2124 0
-337 191 0
-278 277 0
-1670 -176 0
-1072 -258 0
-1807 -124 1809 0
-70 1129 0
-518 -193 0
-1498 -101 0
-547 -214 548 0
-1969 1971 0
-1585 1588 0
-2070 -147 0
-58 57 0
32 588 0
-241 -65 0
-1696 -229 0
-783 784 0
-371 234 0
54 872 0
-1717 -118 1719 0
-32 603 0
-2165 -273 2167 0
-1491 198 1493 0
-812 319 814 0
-923 926 0
-266 781 0
-20 19 0
-1342 1351 0
-1249 1250 0
-721 -44 722 0
-575 -234 0
-1848 245 1850 0
-1108 1109 0
-724 726 0
-1952 136 1954 0
-241 1368 0
-1630 246 0
-545 548 0
-95 1422 0
-269 1535 0
-1875 1876 0
-1756 310 1758 0
-2027 201 0
-1461 -307 1462 0
-2074 2075 0
-1433 1434 0
-1690 1692 0
319 1147 0
-640 -242 0
-1262 269 0
-53 866 0
-1553 1554 0
-604 -33 606 0
-408 409 0
-600 287 601 0
-1826 220 1828 0
-639 -241 0
-115 1714 0
-1766 -311 0
-1507 -200 0
-947 280 0
-1715 1720 0
-51 832 0
-1175 1176 0
-1594 1601 0
-8 7 0
-153 2096 0
-173 1480 0
-151 2088 0
-1303 -183 1305 0
-612 615 0
-72 71 0
-1240 -80 0
23 488 0
-1298 184 1299 0
-1335 -89 0
-1349 242 0
-1379 1382 0
-2031 -201 0
-1515 1521 0
-192 191 0
-612 -286 613 0
-874 880 0
-1038 -65 1040 0
-1106 -181 1108 0
-1524 -103 1526 0
-1699 1700 0
81 1252 0
-1683 228 1685 0
-796 799 0
-1997 -140 1999 0
-209 1944 0
-586 -258 0
-1941 1943 0
-1037 1038 0
-789 287 791 0
-962 -280 0
-1583 -186 1585 0
-2149 -160 2150 0
-1163 172 1165 0
-896 -223 897 0
-553 562 0
-2146 -160 2148 0
-1310 86 1312 0
-454 455 0
-932 -252 0
-333 336 0
-2009 2010 0
-479 -276 0
-1652 -323 1654 0
-912 251 0
-1689 -115 0
-1221 1222 0
161 2156 0
-149 2079 0
-1042 1044 0
72 1144 0
-401 403 0
-557 564 0
-921 925 0
-118 117 0
-285 614 0
-1546 1547 0
-1508 102 1510 0
-1425 1428 0
-1844 1853 0
-1307 -185 1309 0
-1738 283 1740 0
-1248 -251 0
-1104 1105 0
-1283 293 1284 0
-1402 1411 0
-963 964 0
-973 -301 975 0
-619 315 621 0
-1520 270 1521 0
-1733 120 1735 0
-302 301 0
-1344 1352 0
-58 927 0
-1175 74 1177 0
-1528 -269 0
-1755 309 1757 0
-1770 1775 0
103 1518 0
-1692 1694 0
-1848 1855 0
-1387 1396 0
-1940 -134 1941 0
-1778 -122 1780 0
-416 315 0
-1450 1456 0
-671 40 673 0
-52 857 0
-890 -56 892 0
-1158 -322 0
-506 507 0
-385 388 0
-309 -111 0
-2055 2056 0
-705 706 0
-968 970 0
-1549 293 1550 0
-1811 -124 1812 0
-44 43 0
100 1485 0
-18 0
-1375 94 0
-1391 1398 0
67 1079 0
-1472 1473 0
-1190 -74 1192 0
-389 390 0
-2063 -146 2065 0
-1235 1236 0
-66 1043 0
-1938 1939 0
-467 470 0
-817 -317 0
-2049 -221 2050 0
-881 224 882 0
-900 -224 901 0
-642 39 644 0
-1313 88 1315 0
-472 477 0
-253 1976 0
-227 -101 0
-252 251 0
-2001 2004 0
-617 34 619 0
-1943 1945 0
-2061 -145 2063 0
-1559 1562 0
-572 575 0
-835 839 0
-1134 -72 1135 0
-1739 283 0
-2105 211 2107 0
-476 -275 0
-1431 96 1433 0
-1097 1098 0
-19 458 0
-36 634 0
-257 586 0
-2160 -160 2162 0
-1223 1224 0
-90 1337 0
-127 1864 0
-1359 1363 0
-455 458 0
-116 1693 0
-149 0
-1202 -196 1203 0
-178 177 0
-967 302 968 0
-828 181 0
-769 267 0
-1407 1408 0
-1892 -130 1894 0
-1266 1267 0
51 823 0
19 462 0
-1606 1607 0
-965 966 0
-80 1243 0
-1632 -111 1634 0
-570 -30 572 0
-330 165 0
-1465 1466 0
85 1310 0
-2108 -154 2110 0
259 1383 0
-365 7 367 0
-859 867 0
-1344 92 1346 0
-1402 95 1404 0
-382 383 0
-796 -49 798 0
20 463 0
-1591 1592 0
-1843 126 1845 0
86 1311 0
-1133 -303 0
-97 1455 0
-457 -20 0
-1061 258 1062 0
-19 471 0
-644 648 0
119 1753 0
-863 869 0
-123 1811 0
-1271 -268 0
-172 0
-869 -195 870 0
-2019 -311 0
-430 16 432 0
-1474 1475 0
-2164 -162 2166 0
-1265 -83 1267 0
-1187 196 1188 0
-1767 -311 1768 0
-891 892 0
-2094 189 0
-30 583 0
-750 751 0
-811 318 813 0
-1453 1454 0
-1596 208 1598 0
-2172 164 2173 0
-513 -24 515 0
-951 -60 953 0
-84 1286 0
-172 1173 0
-989 -169 0
-979 62 981 0
-333 3 335 0
108 1572 0
-719 -43 0
-428 429 0
-2182 -297 0
-570 574 0
-1983 1984 0
-633 634 0
-1239 -79 0
-1336 1337 0
-2119 2123 0
-477 -22 478 0
-492 493 0
-146 2070 0
-91 1362 0
-1404 96 1406 0
-2182 2183 0
-1704 261 1706 0
-2138 160 0
-895 899 0
-1879 271 0
-92 91 0
-2003 -295 2004 0
-817 818 0
-1274 -269 1275 0
-2036 144 2038 0
-1861 1865 0
-1924 1925 0
-937 938 0
-1615 -209 0
-816 819 0
-276 275 0
-1419 1423 0
-249 -37 0
-198 1506 0
-5 360 0
-20 460 0
-1967 1969 0
-354 355 0
-1914 -325 1916 0
-1403 1404 0
-2057 146 2058 0
-1262 1263 0
-1760 312 0
-364 6 366 0
-2108 2109 0
-1291 -292 1292 0
-480 481 0
-658 -39 660 0
-1083 1085 0
-1927 134 1929 0
-243 -101 0
63 1025 0
-2029 2030 0
107 1589 0
-36 637 0
-708 44 710 0
-1805 -123 1807 0
-18 17 0
-253 -115 0
-1951 136 1953 0
-2086 327 0
-1067 -68 1069 0
-500 502 0
-2080 -151 0
-1682 228 1684 0
-550 -215 551 0
-715 205 0
-251 -69 0
-1145 1146 0
-1167 -74 1169 0
-1267 1269 0
-1161 171 1163 0
-326 0
-2054 2058 0
-1698 -230 0
-1771 1772 0
-100 1497 0
-80 1246 0
124 1799 0
73 1159 0
-342 -3 344 0
-291 1291 0
-974 -302 976 0
-1906 325 1908 0
-226 225 0
-746 747 0
-847 54 848 0
-211 -141 0
-2096 2097 0
-1960 -134 1962 0
68 1080 0
-1917 1919 0
-420 -315 0
74 1160 0
-1533 1536 0
-1796 1800 0
-1234 239 1236 0
-1326 -88 1327 0
-2116 156 2118 0
-142 2030 0
-731 732 0
-523 532 0
126 1844 0
-122 1779 0
-2022 -313 0
-607 -285 0
-160 2161 0
-1397 -259 1398 0
-1468 100 1470 0
-2023 -313 2024 0
-1857 248 0
-666 -40 667 0
-1501 -197 0
-650 275 651 0
-1134 1137 0
-2091 -328 0
-439 -17 441 0
-473 474 0
-1500 -102 1501 0
-813 814 0
-152 151 0
-1612 -208 0
-1638 1640 0
-7 389 0
-913 58 914 0
-48 0
-524 27 526 0
-901 -225 902 0
-45 771 0
-1580 1581 0
-307 2083 0
-1017 1020 0
-997 998 0
-1823 126 1825 0
-356 357 0
-1963 1965 0
-1847 128 1849 0
-119 1761 0
-1219 -77 1221 0
115 1699 0
-1905 1906 0
-142 2043 0
-157 2143 0
-1559 -106 1560 0
2 330 0
-1322 1323 0
-1201 1204 0
-1181 1182 0
-1888 274 0
-2109 2112 0
-1988 1993 0
-2018 -311 2020 0
-56 919 0
-78 77 0
-782 -268 0
-355 214 0
-660 661 0
-1647 1648 0
-356 -4 358 0
-664 -276 0
-657 666 0
-673 299 675 0
-988 -169 990 0
-1160 171 1162 0
-1064 1065 0
-848 193 849 0
-1327 1329 0
-943 946 0
-2059 248 0
-1111 -183 1112 0
-985 986 0
-262 261 0
-307 -119 0
-1831 1832 0
-1190 1191 0
-70 1105 0
-1864 -128 1865 0
-265 -37 0
-526 28 528 0
-1561 -294 0
-1419 -96 1421 0
-1714 -116 1716 0
-1169 1170 0
-2015 2016 0
-63 1037 0
-1099 182 0
-990 992 0
-871 54 873 0
-1573 1574 0
-1642 -246 0
-1836 1838 0
-2107 212 0
129 1881 0
-2034 2039 0
-1092 -291 1094 0
-107 1604 0
-106 1569 0
-1195 -195 0
-614 -286 615 0
-1302 -86 1304 0
-966 302 0
-1664 177 1666 0
-1775 188 1776 0
-267 -69 0
-911 912 0
-1436 305 1438 0
-38 657 0
-169 991 0
-303 1140 0
-250 249 0
-1622 112 1624 0
-1757 1758 0
-756 -236 757 0
-888 895 0
-1862 -128 0
-1499 1501 0
-1839 1841 0
-223 -27 0
-963 60 965 0
-1818 -202 0
-905 57 907 0
-2007 -297 2008 0
-1961 1964 0
-1476 -100 1478 0
-2082 2083 0
-936 940 0
-787 50 789 0
-842 53 844 0
-1376 259 0
-58 949 0
-1595 207 1597 0
-113 1687 0
-1420 1421 0
-1384 261 1385 0
-100 1477 0
-1119 1120 0
-357 -5 359 0
-702 -169 0
-1241 1243 0
-396 -265 397 0
-1112 -184 0
-82 1265 0
-799 801 0
-1046 -239 0
-1015 -215 0
-279 -67 0
-997 63 999 0
75 1185 0
-399 11 401 0
-712 204 714 0
-506 25 508 0
-2012 312 2014 0
-1765 1767 0
-778 780 0
-927 -249 928 0
-225 1338 0
-740 743 0
-1757 310 1759 0
-200 199 0
-95 1447 0
-1644 323 1646 0
-66 1065 0
142 2034 0
-16 428 0
-2148 2151 0
-2014 313 2016 0
-936 60 938 0
-258 257 0
-1750 1752 0
-2035 143 2037 0
-1797 200 1798 0
-1002 1008 0
-1366 1369 0
-568 -29 570 0
-736 235 737 0
-924 927 0
-659 -40 661 0
-1321 208 0
-540 544 0
-1891 1892 0
-2155 162 0
-1416 -94 1418 0
-663 -276 665 0
-462 463 0
-725 727 0
-651 276 652 0
-431 17 433 0
-1938 -133 0
161 2168 0
-2028 202 0
-1229 1230 0
-1110 -182 1111 0
-1040 -66 0
-1255 84 1257 0
-384 10 0
-1304 -183 1306 0
-1926 133 1928 0
-1854 245 1855 0
-787 788 0
-1028 66 1030 0
-1542 106 1544 0
-126 125 0
-1996 1997 0
38 642 0
-353 213 355 0
-1263 270 0
-517 -26 0
-1104 -70 1106 0
-946 279 947 0
-1273 -269 0
-1493 199 1495 0
-1170 1172 0
-1525 -103 1527 0
-1587 -187 1588 0
-1680 227 1682 0
-1699 116 1701 0
158 2135 0
-737 236 0
-825 179 827 0
-985 171 0
-1632 1635 0
-971 972 0
-330 331 0
-749 756 0
-850 853 0
-310 309 0
-52 833 0
-887 -54 889 0
-949 -59 951 0
92 1372 0
-1835 -126 1836 0
10 399 0
-1879 1880 0
-2122 158 2123 0
-1374 1378 0
-1599 110 1600 0
26 523 0
-1296 1297 0
-2177 -163 2179 0
-1155 1156 0
-1900 -273 0
145 2057 0
-713 714 0
-808 317 810 0
-52 51 0
-1922 1923 0
-6 0
-928 -250 929 0
-1621 1622 0
-580 -235 581 0
70 1096 0
114 1660 0
-172 171 0
-2085 327 2087 0
-1721 -261 1722 0
-1883 1887 0
-326 1919 0
-1730 119 1732 0
-236 235 0
-83 1268 0
-1441 1445 0
-735 46 736 0
-1805 1806 0
-441 -18 0
130 1906 0
-489 165 491 0
-1055 257 1057 0
-638 -38 0
-114 0
97 1463 0
-1973 -137 0
-2168 162 2170 0
-492 166 494 0
-1043 1045 0
-1746 1748 0
-1220 -78 1222 0
-1173 -173 1174 0
-538 543 0
-1868 1871 0
-1972 -136 0
-1426 1429 0
-1691 -116 1692 0
131 132 177 178 0
-1785 -189 1786 0
-721 723 0
-2102 155 2104 0
-117 1741 0
-1601 208 1602 0
-1148 1150 0
-501 503 0
-1731 1732 0
-1786 -190 0
-876 223 878 0
-1171 -172 1172 0
-386 10 387 0
-1218 -77 1220 0
-536 216 0
-1610 1613 0
69 1113 0
-842 847 0
-1127 306 0
-1289 1290 0
-906 58 908 0
-1168 1171 0
-1333 -208 0
-1492 198 1494 0
-453 250 0
-663 669 0
-1150 322 0
147 148 149 150 283 284 0
-1325 -88 0
-1672 1674 0
-1885 271 1886 0
-920 -57 922 0
-1915 1916 0
-647 650 0
-627 628 0
-1400 -262 0
-1372 1377 0
-306 305 0
-263 2073 0
-1013 -64 1015 0
-1792 199 1794 0
-2050 -222 0
-23 513 0
-952 953 0
-1006 215 1007 0
-571 -30 0
-1466 323 0
-1102 183 1103 0
-1273 1275 0
-1590 109 1592 0
-686 -300 687 0
-110 1613 0
-48 47 0
-537 -26 539 0
-1585 -187 0
-2002 2005 0
-1015 1018 0
-655 278 0
-112 111 0
-1474 175 0
-1603 210 0
-573 576 0
-139 2000 0
-1540 1541 0
-1330 -206 1331 0
-1584 -186 0
-232 231 0
-1107 -182 1109 0
-241 640 0
-1663 176 1665 0
-2017 -140 2019 0
-2102 2103 0
-1621 111 1623 0
-2166 2167 0
-268 0
-1481 1483 0
-1176 1185 0
-436 437 0
-419 -315 421 0
-393 -10 0
-1365 -241 1366 0
-1645 1646 0
-1864 1867 0
-1723 1726 0
-819 821 0
-1021 -217 0
-1570 -310 0
102 1509 0
-841 52 843 0
-770 268 0
-1676 115 1678 0
-761 762 0
-1180 1187 0
-1281 1284 0
-377 379 0
-1360 -92 0
-100 99 0
-1700 117 1702 0
-147 0
-441 443 0
-158 157 0
-1286 1291 0
-1592 110 1594 0
-1667 -114 1669 0
-702 704 0
-1208 78 0
-1208 1210 0
-2185 -313 0
-284 283 0
-164 2185 0
-5 372 0
-20 472 0
-717 -42 719 0
53 871 0
-995 62 997 0
-1097 181 1099 0
-281 1749 0
-711 203 713 0
-1328 1330 0
-2011 311 2013 0
-941 278 0
-1911 1912 0
16 431 0
-2116 2117 0
-2092 154 2094 0
-381 386 0
-99 1496 0
-1417 -95 1419 0
-26 25 0
289 1083 0
-1113 70 1115 0
-1796 199 1797 0
-31 584 0
-1595 1596 0
-1971 -232 0
-1211 1213 0
-1870 -246 1871 0
-2135 2140 0
-170 0
-891 -56 893 0
-146 145 0
-813 319 0
-1012 1013 0
-1653 1654 0
-1795 1799 0
-628 630 0
-1916 1918 0
-227 -109 0
-507 511 0
42 690 0
-871 872 0
-1636 -243 0
-387 265 388 0
-210 209 0
-48 796 0
-1708 263 0
-11 418 0
-1837 1839 0
-141 2029 0
-225 -63 0
-375 -8 0
-1075 1078 0
-590 598 0
-167 701 0
-888 -55 890 0
-1430 -282 0
-1213 218 1214 0
-1657 -325 1658 0
-374 -7 0
-1955 230 1957 0
-287 -39 0
-1182 196 1184 0
-1195 1198 0
-1458 1462 0
-185 1586 0
-1838 -220 0
-68 1088 0
-2061 2066 0
-2162 2163 0
13 14 15 16 203 204 0
-1633 -111 0
-553 29 555 0
-1936 -132 1938 0
-2147 2148 0
-281 -103 0
-1359 -92 1361 0
-2167 -274 0
-496 497 0
-1541 1549 0
-27 567 0
-1725 1728 0
-1746 -281 0
-1705 1706 0
-2043 -143 2045 0
-957 962 0
-413 -286 0
12 415 0
-704 -170 0
-1512 104 1514 0
-141 2042 0
-269 -93 0
-2038 221 0
-1591 109 1593 0
-43 744 0
-680 681 0
-747 -46 749 0
-1545 1551 0
-2087 328 0
-1889 1890 0
-1758 311 1760 0
-1223 -217 1225 0
-1203 -197 1204 0
-1690 -116 0
-1178 76 1180 0
-1447 1448 0
-280 279 0
-716 206 0
-354 213 0
-2109 -155 2111 0
-1893 -130 1895 0
-1009 218 0
-504 24 506 0
-2173 297 0
-484 485 0
-1631 1632 0
-81 1247 0
-22 21 0
-1931 210 1933 0
-2155 2157 0
-579 -234 580 0
-282 1751 0
-1901 -271 1902 0
-217 -69 0
-726 728 0
-86 85 0
-43 721 0
-1956 1957 0
-547 550 0
-1300 185 1301 0
-76 1218 0
-1514 1515 0
-1373 1374 0
-206 205 0
-2076 2077 0
-763 48 765 0
-124 1815 0
-2077 -283 0
-2170 163 0
-514 -25 516 0
140 2010 0
-1019 -215 1020 0
193 853 0
-1071 1074 0
-1051 1052 0
-410 411 0
-1138 -304 1139 0
-987 -62 989 0
-1193 1197 0
-1256 1257 0
-179 838 0
-1135 1138 0
-1063 260 0
-1279 292 1281 0
-1177 1178 0
-574 -233 575 0
-1434 98 1436 0
-1816 -200 1817 0
-1581 -185 1583 0
-1895 -271 0
-1527 -104 0
-1639 1641 0
-313 2186 0
-249 -45 0
-2143 2144 0
-955 961 0
-168 703 0
-1765 -310 1766 0
-538 -27 540 0
-132 131 0
-212 0
-911 250 0
-273 -137 0
-1964 1966 0
-267 -57 0
-939 942 0
-132 1937 0
-1988 297 0
-75 1196 0
-147 2074 0
-99 1476 0
-1724 -262 1725 0
-876 881 0
-1257 267 1259 0
-1177 75 1179 0
-2090 2091 0
-259 -81 0
-50 816 0
277 945 0
-1302 1303 0
-399 402 0
78 1230 0
-2069 2070 0
-151 2081 0
-1044 1046 0
-1627 1628 0
-1928 134 1930 0
-51 856 0
-1930 209 1932 0
165 331 0
-1686 230 0
-845 846 0
-1865 -245 1866 0
-299 -33 0
-1830 222 0
-1952 1953 0
-1675 114 1677 0
-64 1038 0
-253 1251 0
-309 1765 0
-1100 183 0
-607 610 0
-1316 205 1318 0
-587 588 0
-266 265 0
320 1149 0
-2020 -312 0
-2136 2137 0
-854 195 855 0
-1894 1899 0
-1452 1457 0
-1944 -210 1945 0
-1278 291 1280 0
117 1729 0
-1011 -63 1013 0
-771 772 0
-2137 160 2139 0
-1679 1680 0
-273 -147 0
-329 330 0
49 807 0
-1425 -279 1426 0
-267 -67 0
-1558 1561 0
-2019 2020 0
-235 -35 0
-1718 -118 0
-1237 1238 0
-1393 1399 0
-2127 -157 2129 0
-732 736 0
107 1571 0
-2183 -298 0
-465 22 467 0
-513 514 0
-255 1978 0
-969 303 970 0
-114 1688 0
-2062 2063 0
-63 1016 0
-1328 -205 1329 0
-1456 -305 1457 0
-979 980 0
-133 1940 0
-318 317 0
-474 478 0
-1980 1989 0
-1614 -208 1615 0
-415 315 417 0
-380 8 382 0
-1882 1886 0
-1024 -218 0
-1120 1126 0
-1440 1444 0
60 942 0
-1163 1164 0
139 1989 0
-779 781 0
-226 1339 0
-780 -267 0
-2071 2072 0
-1674 -178 0
-337 339 0
-1930 1931 0
162 2158 0
302 969 0
-868 -194 869 0
-1488 1489 0
-1611 -207 1612 0
-2129 2130 0
-1367 1370 0
-1347 1348 0
-2184 -164 0
-180 179 0
-845 54 0
-1267 -84 0
-905 906 0
-797 -49 0
-1608 1609 0
-539 -27 541 0
-2081 -152 0
84 1277 0
151 2084 0
-2093 189 2095 0
-1025 1026 0
-384 385 0
-1109 1112 0
-1089 1090 0
152 2085 0
-877 223 0
-1415 282 0
-1399 -261 1400 0
-1123 72 1124 0
-2060 -144 2062 0
-1171 1173 0
-271 -111 0
-1368 -242 1369 0
-767 768 0
-1000 215 1002 0
-1575 186 0
-646 649 0
-986 172 0
-106 105 0
-310 1767 0
-2002 -296 0
-1675 1676 0
-691 167 693 0
181 1101 0
-1562 -293 1563 0
-421 -316 0
-1503 -198 0
-120 1747 0
-772 775 0
-1739 1740 0
-689 42 691 0
-752 753 0
-138 1995 0
-1771 187 1773 0
-1214 1216 0
-187 -113 0
-475 -22 0
-1454 -306 0
-1465 322 0
-1610 -110 1611 0
-2064 2065 0
-783 48 785 0
-1496 -100 1498 0
-807 50 809 0
-221 -133 0
-1276 1277 0
-1054 1061 0
-556 30 558 0
-494 495 0
-2184 2185 0
-834 835 0
-373 376 0
-450 20 452 0
-785 49 787 0
-1363 -241 1364 0
-32 31 0
-1700 1709 0
-1884 1888 0
-1189 198 0
-1817 -201 1818 0
-788 287 790 0
-699 -167 0
-39 666 0
-993 -171 994 0
-1159 1160 0
-698 701 0
-1038 1041 0
-35 636 0
-1357 -91 1359 0
142 2026 0
-2126 2131 0
-1017 -215 1018 0
-1926 1927 0
-1704 1711 0
-2082 -307 0
1 329 0
-1003 1004 0
-1748 -282 0
-1343 1344 0
-112 0
-1553 -104 1555 0
-1129 -71 1131 0
117 1709 0
-1908 326 1910 0
-2130 2133 0
-2145 -159 2147 0
-240 239 0
-713 204 715 0
-2110 2111 0
113 1675 0
-67 1070 0
-764 265 766 0
-1810 1814 0
-458 -20 459 0
-1527 1528 0
-311 2021 0
-665 -277 0
-2174 297 2175 0
-1509 103 1511 0
-557 233 559 0
-964 967 0
-1132 -72 0
-1269 1271 0
-437 224 0
-569 -29 571 0
-1191 -75 1193 0
-91 1386 0
-2067 -247 2068 0
-155 2125 0
-2133 -232 0
-114 1668 0
-1071 -257 1072 0
-1509 1518 0
-1199 -195 1200 0
-423 424 0
130 1885 0
-790 288 792 0
-942 277 943 0
-1030 237 1032 0
-358 -5 0
-1813 1817 0
-85 1322 0
-2056 2059 0
-166 165 0
-1256 84 1258 0
-910 916 0
-1614 1617 0
-1029 66 1031 0
-24 514 0
98 1443 0
-295 2006 0
-1467 324 0
-562 30 563 0
-1535 -270 1536 0
-2180 -164 2182 0
-1997 2001 0
-370 371 0
-117 1720 0
-886 226 0
-1876 1882 0
-253 -127 0
-1707 262 0
-1434 1440 0
218 1215 0
-1778 1779 0
-676 301 0
-1165 173 0
-1085 291 1086 0
-950 -59 952 0
-145 2066 0
45 735 0
-253 -91 0
-695 696 0
-1246 -81 0
-574 577 0
-554 555 0
-402 12 403 0
-1332 -207 1333 0
-1136 1139 0
-520 -193 521 0
-1426 -280 1427 0
-1649 325 0
-175 1671 0
33 617 0
-2128 -158 2130 0
-1245 -80 0
-108 1581 0
-154 153 0
-1661 1662 0
-372 -6 374 0
-861 -193 863 0
-135 1972 0
-685 -301 0
34 618 0
-1277 291 1279 0
-541 -28 0
-1322 -86 1324 0
-1530 -269 1531 0
-1635 -112 1636 0
-1753 120 1755 0
-1019 1022 0
-1798 201 0
-2152 160 2154 0
-999 1000 0
-1032 238 1034 0
-1865 1868 0
-1845 1846 0
-472 -21 474 0
-799 -50 800 0
-1724 1727 0
-128 1867 0
-820 822 0
-1212 218 0
-93 1416 0
-416 417 0
-521 -194 0
163 164 313 314 0
-621 622 0
-1324 1325 0
-1484 100 1486 0
-295 -111 0
-1986 1992 0
-1183 1184 0
-480 22 482 0
-283 2078 0
-2170 2171 0
-283 -137 0
-1388 1389 0
-80 79 0
-1649 1650 0
141 2033 0
-1528 1531 0
-1508 1509 0
-2111 2113 0
-1091 -290 1093 0
-397 -266 0
-1066 1067 0
-1329 1331 0
-503 -168 0
-824 829 0
-289 -59 0
-1067 1071 0
-264 263 0
-1130 1131 0
-1833 1834 0
-1803 -122 1805 0
-1062 259 1063 0
-1136 -304 0
-313 -151 0
-1654 1656 0
-1250 1251 0
-1939 -134 0
-1995 2000 0
-1407 279 1409 0
-2017 2018 0
-546 549 0
-168 0
-6 5 0
-915 250 916 0
-1575 1576 0
-1838 1840 0
-1717 1721 0
-1668 -175 1670 0
-793 794 0
76 1206 0
157 2134 0
97 0
-1568 -106 0
12 404 0
-1369 -243 1370 0
-1982 140 1984 0
153 2100 0
-312 0
-1749 -282 1750 0
-1323 -87 1325 0
235 741 0
91 1371 0
-867 -193 868 0
-427 -16 0
-1759 1760 0
-2022 2024 0
-1726 -262 1727 0
-42 698 0
-999 64 1001 0
-1517 1522 0
-977 978 0
-968 303 0
-1196 1199 0
-414 12 416 0
-532 28 533 0
-695 169 0
-633 -36 0
-875 876 0
-1059 68 1060 0
-741 236 742 0
-214 213 0
-613 -287 0
-2084 2085 0
-1292 -293 1293 0
-613 616 0
-1646 324 1648 0
6 365 0
-1117 72 1119 0
-1210 217 0
-1497 -101 1499 0
-1764 1766 0
-860 861 0
-311 -129 0
-1380 1383 0
-739 742 0
-719 720 0
69 1095 0
-1355 244 0
-1987 296 0
-938 941 0
-329 2 0
-918 919 0
-1188 197 1189 0
-1145 319 0
-1156 -321 1158 0
-1867 -245 1868 0
-2069 -146 0
99 1468 0
-559 565 0
-345 -191 347 0
-1526 1530 0
105 1548 0
-104 1554 0
-879 883 0
129 1905 0
-602 603 0
47 783 0
-2118 157 2120 0
-49 815 0
-140 139 0
-390 -9 392 0
-1788 1795 0
-1404 1412 0
-1677 115 1679 0
-187 1784 0
-1568 1569 0
-215 -35 0
-1346 1353 0
-1701 117 1703 0
-1531 -270 0
-1554 -105 1556 0
-402 404 0
-344 345 0
-1850 1856 0
-324 323 0
-16 439 0
-656 -38 658 0
-1893 1894 0
-718 -43 720 0
-203 -25 0
-2156 2158 0
-251 -65 0
33 597 0
-259 -69 0
-801 -287 802 0
-1969 -231 0
-464 465 0
-219 -113 0
-1310 1311 0
-111 1635 0
-1451 -98 1453 0
-548 551 0
-1394 -260 0
-1346 241 1348 0
-528 529 0
-1351 92 1352 0
-1537 -272 0
-597 34 598 0
-1834 1836 0
-701 -168 702 0
-2077 2078 0
-1693 1695 0
-789 790 0
-66 65 0
-722 -203 0
-740 237 0
-1871 -247 1872 0
-1935 212 0
-1242 -239 0
60 964 0
-1494 1495 0
-93 1396 0
-1639 -244 1640 0
-186 185 0
-1482 -175 1483 0
-307 -105 0
-953 -277 955 0
-1565 -294 1566 0
-125 1858 0
24 489 0
-973 974 0
-1882 271 1883 0
-1897 1901 0
-852 855 0
-610 -286 0
-1093 -291 0
-1455 1459 0
-1616 -208 1617 0
-1819 1820 0
-1645 323 1647 0
-1276 84 1278 0
-1640 1642 0
-1836 -219 0
-1284 294 0
-281 -111 0
-595 596 0
-751 757 0
-1162 172 1164 0
-1546 294 0
-1853 128 1854 0
-791 288 793 0
-958 -60 959 0
-1157 1158 0
-585 -257 0
-609 -285 610 0
-1181 195 1183 0
-856 857 0
137 1979 0
-735 738 0
-1480 -174 1481 0
-715 716 0
85 1294 0
-2051 144 2053 0
-54 53 0
-2021 -312 2022 0
-920 921 0
-805 -289 806 0
-1153 -319 1155 0
-1745 1747 0
-1361 1364 0
-844 54 846 0
-1687 1688 0
-1720 -118 1721 0
-991 -170 992 0
-1944 1946 0
-125 1835 0
-1740 284 0
-62 988 0
-1502 1504 0
-207 1616 0
-554 29 556 0
-238 237 0
-77 1237 0
-1849 245 1851 0
-720 722 0
-2044 -143 2046 0
-546 -213 547 0
-203 -35 0
-778 -266 0
-1877 130 1879 0
-2070 2071 0
-494 167 0
-861 868 0
-403 285 0
-1045 1047 0
-1626 244 1628 0
-152 2082 0
-641 642 0
-2143 -158 2145 0
-1913 -130 1915 0
-452 249 0
91 1351 0
-753 -237 0
-1671 1673 0
-1031 237 1033 0
-1157 -321 0
-865 870 0
-17 442 0
-331 166 0
-525 28 527 0
-752 -236 0
-524 525 0
-1733 1734 0
-1612 1615 0
-757 -237 758 0
-2 341 0
15 430 0
-1142 -306 0
-205 1330 0
-1638 -244 0
-188 187 0
-293 -95 0
-1039 -65 0
-112 1637 0
-646 275 0
-1966 -229 1967 0
52 842 0
13 14 179 180 0
-2000 -140 2001 0
-693 694 0
-1687 -114 1689 0
-1033 1034 0
-2095 190 0
-2121 2124 0
41 689 0
-450 451 0
-515 -25 517 0
-1358 1359 0
-1118 303 1120 0
-1832 -125 1834 0
-1217 1218 0
-1480 1482 0
-1439 98 1440 0
-843 53 845 0
-2125 2126 0
-231 -143 0
-2004 2007 0
-114 113 0
-634 635 0
-909 249 911 0
-1196 -76 1197 0
-1863 1866 0
-959 -277 960 0
-1582 -185 1584 0
109 1619 0
-1542 1543 0
-1421 1424 0
-468 22 469 0
-1401 1402 0
-902 -226 0
-376 378 0
-923 -249 0
185 1577 0
-298 297 0
-1572 185 1574 0
-1725 -263 0
-1084 291 0
-517 518 0
-780 782 0
-590 34 592 0
-1976 -254 0
-438 439 0
-701 703 0
-935 59 937 0
-1207 77 0
-126 1837 0
-1143 1144 0
-2037 144 0
-163 2184 0
-1073 -257 1074 0
7 380 0
-2051 2052 0
-593 285 595 0
-40 39 0
23 504 0
-456 -19 0
127 1873 0
-1812 -199 1813 0
-498 -165 0
-285 -21 0
-455 -19 457 0
-827 828 0
8 381 0
-1084 1086 0
-443 445 0
-858 -53 860 0
-204 727 0
-160 159 0
-654 277 655 0
128 1874 0
-224 223 0
-1793 1794 0
-816 -317 818 0
-1288 1292 0
-1608 -110 0
-100 0
-1311 87 1313 0
-364 365 0
-967 969 0
-1057 258 0
-569 570 0
-47 795 0
-1168 -171 1170 0
-2118 2119 0
-657 -39 659 0
-486 -299 0
-1215 219 1216 0
-1576 187 0
-1983 140 1985 0
-1977 1978 0
165 0
-689 690 0
-1209 78 1210 0
-564 234 565 0
-206 1332 0
-1428 -280 1429 0
-1394 1395 0
-1170 -172 0
-193 -41 0
-1554 1559 0
-1918 1920 0
-1077 -259 1078 0
-1534 1537 0
-1797 1801 0
-1860 1861 0
-873 874 0
-1169 -171 0
-1712 263 1713 0
-1012 -63 1014 0
-1532 -269 1533 0
-1827 220 1829 0
-616 -288 0
-1462 -308 0
-1734 281 1736 0
-675 300 0
-245 1870 0
-2044 2045 0
61 979 0
-898 902 0
-2084 152 2086 0
-514 519 0
67 1059 0
-1839 -220 1840 0
-1342 91 1344 0
-294 293 0
-573 -30 574 0
-592 599 0
-745 -45 747 0
-1457 -306 1458 0
62 980 0
-681 -299 683 0
-1081 1082 0
-859 -54 861 0
-1299 185 0
-1672 -177 0
-1789 123 1791 0
-2040 221 2041 0
-498 499 0
-1018 1021 0
-1405 96 1407 0
-408 -11 410 0
-1154 -320 1156 0
-827 180 0
-36 35 0
-120 1762 0
-297 -149 0
-1144 1147 0
-158 2144 0
-1993 298 0
-1543 1550 0
-682 683 0
-2045 -144 2047 0
-460 -249 461 0
-72 1137 0
-220 219 0
-823 52 825 0
77 1229 0
-1449 1450 0
-576 -233 577 0
163 2172 0
-205 -61 0
-1668 1671 0
-376 -8 377 0
-287 803 0
-1547 1552 0
-749 -235 751 0
-1270 1272 0
-552 28 554 0
-630 -317 0
-75 1217 0
-34 611 0
-1602 209 1603 0
-446 18 448 0
-501 -167 0
-1633 1634 0
-758 -238 0
-1875 129 1877 0
-197 -85 0
-86 1323 0
-1070 1073 0
-2037 2038 0
290 1085 0
-1705 261 1707 0
-88 87 0
-1886 272 1887 0
-1958 1959 0
-1791 124 1793 0
-1516 1517 0
-1305 -184 1307 0
-1375 1376 0
-837 -181 0
-890 896 0
-1948 134 1950 0
-933 934 0
-2039 144 2040 0
-1883 272 1884 0
-272 271 0
-1578 187 1579 0
-2026 201 2028 0
-1166 174 0
-1526 -104 1528 0
-1720 1723 0
-129 1897 0
-836 -180 0
-473 -21 475 0
-350 351 0
127 1853 0
-894 898 0
-1258 1259 0
-1366 -242 1367 0
-1137 1140 0
-1543 293 1545 0
-2052 145 2054 0
-1117 1118 0
-2104 2105 0
-1923 -178 0
-324 1657 0
-1114 1123 0
-2025 2026 0
-675 676 0
-1588 -188 0
-140 2003 0
116 1700 0
-14 13 0
-1545 294 1547 0
-136 1973 0
-1921 -132 0
-2141 255 2142 0
46 738 0
-775 -48 776 0
-1922 -177 0
-239 -69 0
-1147 320 1148 0
-343 -4 345 0
-134 133 0
-1018 -216 0
-47 775 0
-738 741 0
-198 197 0
-929 -251 0
-2076 -150 0
-555 30 557 0
-35 0
-435 223 437 0
-800 802 0
-2042 -142 2044 0
-412 -285 0
-2092 2093 0
-975 -302 977 0
-1381 260 1382 0
-1641 -245 1642 0
-793 289 0
-830 181 831 0
-626 -315 628 0
-309 1570 0
-351 6 353 0
-179 -41 0
-30 576 0
-261 1726 0
-765 265 767 0
-680 -40 682 0
-131 1921 0
-2033 2034 0
-1567 -296 0
-925 928 0
-1308 -185 0
-1761 -120 1763 0
-694 169 696 0
-1769 122 1771 0
-1967 -230 0
-1192 -75 1194 0
-470 276 0
63 1005 0
-1504 -198 1505 0
-2038 2041 0
-369 233 371 0
-1634 1636 0
-1877 1878 0
-1049 66 1051 0
-1129 1134 0
-589 590 0
121 1769 0
-883 223 884 0
-982 170 984 0
-1435 1436 0
-268 267 0
-1119 303 1121 0
-1427 -281 0
-1555 1556 0
-466 22 0
-1502 -197 1503 0
-672 677 0
29 30 31 32 257 258 0
-219 -101 0
-191 635 0
-1619 1620 0
-1693 -227 1694 0
-1197 1200 0
-889 -55 891 0
-1087 -68 1089 0
-135 1964 0
-10 9 0
-1779 1784 0
77 1209 0
-1206 77 1208 0
-1842 -222 0
-74 73 0
73 1175 0
-307 -129 0
-676 679 0
-656 657 0
-1439 1443 0
-1994 -138 1996 0
-910 250 912 0
-1381 1384 0
-734 737 0
-194 193 0
-336 338 0
-361 -213 0
74 1176 0
-161 2176 0
-714 205 716 0
-295 -119 0
-1750 -283 0
-981 982 0
-447 19 449 0
2 333 0
-86 1303 0
-1655 -324 1656 0
-700 -168 0
-1827 1828 0
-862 -193 864 0
-1039 1040 0
-398 399 0
-804 -289 0
-61 987 0
87 88 89 90 225 226 227 228 0
-48 777 0
71 1143 0
21 468 0
-1033 238 1035 0
-1165 1166 0
-1222 -217 1224 0
-1887 273 1888 0
-1968 -230 1969 0
-459 -249 0
-485 -299 487 0
-1422 -96 1423 0
-2011 2012 0
-1341 90 1343 0
-1122 1127 0
-62 61 0
-582 583 0
-25 537 0
-1569 1570 0
-454 -18 456 0
-1697 -229 1698 0
-403 405 0
-1516 270 0
-120 119 0
-1349 1350 0
162 2169 0
-693 168 695 0
-1 340 0
-885 225 886 0
-709 44 711 0
-927 930 0
9 386 0
-856 -52 858 0
-907 908 0
-69 1104 0
-1427 1430 0
-1551 295 1552 0
-2157 273 0
-246 245 0
-665 670 0
-1753 1754 0
-1106 1107 0
-176 0
-1232 80 1234 0
-118 1742 0
-219 1839 0
-1020 -216 1021 0
-1873 1874 0
-2106 211 0
-56 899 0
-899 -223 900 0
-1091 1092 0
-1431 1432 0
-1694 1696 0
-1287 -291 1289 0
105 106 309 310 0
153 2092 0
-508 509 0
-225 -69 0
-1281 293 0
-324 -323 -322 -321 -98 -97 0
-21 484 0
-1416 1417 0
-1592 1600 0
-1295 1298 0
-1471 174 1473 0
-1810 -200 0
-307 -139 0
-648 651 0
-108 107 0
-381 9 383 0
-17 454 0
-818 -318 0
-1226 -219 1228 0
-126 1859 0
-1898 1902 0
-1809 -199 0
-1172 -173 0
-391 392 0
-1741 1742 0
-527 213 529 0
-1980 139 1982 0
-295 -129 0
-1547 295 0
-1874 129 1876 0
-774 776 0
57 933 0
18 447 0
-1377 1380 0
-1916 -326 0
-2111 -156 0
-860 -54 862 0
-669 -277 670 0
-925 -249 926 0
-1247 -82 0
-1513 269 1515 0
104 1539 0
-254 253 0
-2003 2006 0
-440 -17 0
-1362 1365 0
-939 60 940 0
-1475 176 0
-522 26 524 0
-1963 -136 0
-1945 1947 0
-637 -37 0
-1561 1564 0
-1631 -110 1633 0
-76 1199 0
98 1464 0
-1647 324 1649 0
-620 316 622 0
-78 1238 0
-71 1134 0
-795 -48 797 0
-1858 -126 1860 0
-484 -22 486 0
-636 -36 0
-857 -53 859 0
-1667 1668 0
-37 638 0
-919 924 0
-215 -43 0
-1182 1188 0
-1702 1710 0
-143 2048 0
-739 236 740 0
-1225 1226 0
-2074 -148 0
-33 608 0
-1889 -128 1891 0
-65 1064 0
95 1431 0
-495 168 0
-1787 1788 0
-700 702 0
-1660 175 1662 0
-742 237 743 0
-1851 1852 0
-156 2114 0
-315 629 0
-1320 207 0
96 1432 0
-113 1667 0
-57 924 0
-1706 1712 0
-1409 1410 0
-242 241 0
-496 -24 498 0
-846 849 0
-976 -303 978 0
-1812 1816 0
-106 1562 0
-2176 2177 0
-1324 -87 0
-442 444 0
-1673 -177 1674 0
-1715 -117 1717 0
-1613 1616 0
-45 754 0
-1593 1594 0
-201 -131 0
-605 -34 607 0
-1706 262 1708 0
-1628 245 1630 0
-1590 1599 0
-1151 1152 0
-1841 -221 1842 0
-65 1041 0
-728 -206 0
-709 710 0
-422 -14 0
-220 1841 0
-2024 -314 0
-809 317 811 0
-622 317 624 0
-127 1889 0
-1317 206 1319 0
-509 512 0
-265 -31 0
-849 852 0
-1476 1477 0
-990 -170 0
-1442 307 0
-1511 1519 0
-1335 1336 0
-168 167 0
-540 -28 542 0
-1896 -272 0
-1998 -140 0
-451 249 453 0
-893 894 0
-32 585 0
78 1211 0
-1731 119 1733 0
-1450 -98 1452 0
-366 7 368 0
-912 917 0
-372 373 0
-1623 112 1625 0
-1859 -127 1861 0
-1921 1922 0
-2063 2067 0
-1780 1781 0
-1609 -207 0
-1985 1986 0
-1338 1339 0
-215 -53 0
-697 698 0
-148 2072 0
-576 579 0
-1096 1101 0
89 1341 0
-556 557 0
-1124 303 1125 0
-411 -285 413 0
-64 1019 0
-1069 -257 0
-1422 1425 0
-1563 -294 1564 0
-897 901 0
-94 93 0
-1663 1664 0
90 1342 0
-1412 279 1413 0
-1844 127 1846 0
-921 -58 923 0
-1538 104 1540 0
-549 -214 550 0
-79 1241 0
-1605 -109 1607 0
-1100 1103 0
-892 -223 894 0
-776 -265 0
-1080 289 1082 0
122 1788 0
-1319 207 1321 0
-1867 1870 0
-1847 1848 0
-28 568 0
-1605 1610 0
-857 866 0
-1405 1406 0
-944 947 0
-1264 1265 0
-623 624 0
-863 -194 865 0
-954 -277 956 0
-482 483 0
-101 1523 0
-2031 2032 0
-535 215 536 0
-1390 1391 0
-1609 1612 0
-1627 244 1629 0
-1016 -64 1017 0
-39 680 0
-948 949 0
-257 -37 0
-316 631 0
-1589 1590 0
79 80 81 82 251 252 253 254 0
114 1676 0
-807 808 0
45 759 0
57 913 0
-544 -213 545 0
-599 286 600 0
-166 -165 -2 -1 0
-134 0
4 349 0
-1521 271 1522 0
-1999 -295 0
-171 1171 0
46 760 0
-1244 -240 0
-1773 1774 0
-937 60 0
-1132 1133 0
-108 1605 0
-1652 1655 0
111 1643 0
-82 1248 0
-2053 145 2055 0
-826 830 0
-237 1045 0
-1947 -212 0
-134 1961 0
-228 227 0
-101 1500 0
-2098 2099 0
-13 0
-567 -28 569 0
-1550 294 1551 0
-1316 1317 0
-568 573 0
-2005 -297 0
-1798 1802 0
-1957 231 1959 0
95 1411 0
-733 734 0
-401 12 0
-409 -12 411 0
-432 433 0
-1981 1982 0
-1719 1722 0
-185 -99 0
-13 422 0
-634 -191 0
-1081 289 0
-1598 1603 0
-197 1504 0
-1850 246 1852 0
-784 49 786 0
-1962 -135 0
-559 234 561 0
-475 476 0
-1198 1201 0
-1825 1826 0
-2064 -146 0
-960 -278 961 0
-878 882 0
-1593 110 1595 0
-1582 1583 0
-1109 -183 0
-1443 305 1444 0
-1766 1768 0
-1211 217 1212 0
-1382 1385 0
-358 359 0
-1965 1967 0
-96 1448 0
-148 2075 0
-940 943 0
-684 -300 0
-528 213 530 0
-1907 1908 0
-917 252 0
-1752 -284 0
-1799 199 1800 0
179 829 0
-122 1804 0
-1573 185 1575 0
157 2122 0
-340 -2 342 0
-357 360 0
-1200 -196 1201 0
-1411 96 1412 0
-1265 1268 0
-490 165 492 0
-1418 -95 1420 0
-1245 1246 0
-1795 124 1796 0
-1135 -303 1136 0
-461 -250 0
-142 141 0
-561 566 0
-662 663 0
-98 1459 0
-255 -145 0
-1695 -228 1696 0
-1890 -129 1892 0
-1452 -305 1454 0
-1391 -259 1393 0
-744 -44 746 0
-2100 154 2102 0
-425 426 0
-648 275 649 0
-103 1529 0
-1790 1796 0
-96 1425 0
-987 988 0
-1406 1413 0
-346 347 0
-41 717 0
-1934 211 0
-326 325 0
-1974 1975 0
-1192 1193 0
-1348 1354 0
-1896 1900 0
-1312 1313 0
-641 38 643 0
-907 58 909 0
-1089 -289 1091 0
-1454 1458 0
-1468 1469 0
-1794 1798 0
-530 531 0
-1956 230 1958 0
-2006 -296 2007 0
-729 730 0
-992 994 0
-2179 -164 2181 0
-608 611 0
-68 67 0
66 1050 0
-1574 1578 0
-1781 -188 1783 0
144 2052 0
-1395 1400 0
-1496 1497 0
-444 -223 445 0
-1224 -218 1226 0
-102 1502 0
-1362 -92 1363 0
-1074 1077 0
-1701 1702 0
-1098 182 1100 0
-338 191 339 0
-174 1482 0
-471 472 0
-74 1191 0
-1821 1822 0
-2119 158 2121 0
-418 -12 420 0
-1389 -94 1391 0
-249 930 0
-748 -46 750 0
-462 20 464 0
-1501 1503 0
-1352 241 1353 0
-476 479 0
-1912 328 0
-456 457 0
-674 300 676 0
-1762 -309 1764 0
-2001 -295 2002 0
-154 0
-1793 199 0
-2097 -189 2099 0
-2073 -264 0
-150 2077 0
-1719 -261 0
-210 1946 0
-2045 2049 0
-1401 94 1403 0
-1121 1122 0
-1978 -256 0
-9 395 0
42 706 0
-195 -61 0
-1340 -228 0
-1393 -260 1395 0
-746 -45 748 0
-1669 -175 0
-2072 -263 0
-1834 -126 0
-1992 297 1993 0
-682 -299 684 0
-662 -275 664 0
-801 803 0
-1121 304 0
-205 -69 0
-821 -319 822 0
-802 -288 0
-74 1168 0
-722 724 0
-794 290 0
-664 665 0
-1833 -125 0
-1003 216 0
-543 546 0
-1741 -118 1743 0
-227 1340 0
-159 2149 0
-202 201 0
-628 -316 0
-1819 124 1821 0
-2072 2073 0
-1856 247 1857 0
-2121 231 0
-1774 189 0
-467 275 0
-643 644 0
-1772 1776 0
-1776 189 1777 0
-378 -233 379 0
-499 -166 0
-359 -6 0
-1735 281 1737 0
-627 -315 0
-707 708 0
-683 687 0
-10 407 0
-406 407 0
-926 929 0
-1036 240 0
-104 1532 0
-1557 -106 0
-1377 94 1378 0
21 480 0
-1432 97 1434 0
-1737 282 1739 0
-1374 94 1376 0
-1473 175 1475 0
-1572 1577 0
-1282 292 1283 0
-1406 279 1408 0
-1635 1637 0
-2176 -162 2178 0
-1231 1232 0
-649 276 0
-1919 -327 1920 0
-1597 208 0
-1852 247 0
-2018 2021 0
50 808 0
-487 -300 0
-128 127 0
-1005 64 1006 0
-1732 120 1734 0
-1194 -76 0
-1998 1999 0
9 398 0
-1576 1579 0
-488 24 490 0
-1172 1174 0
-698 -167 700 0
-596 287 0
-1768 -312 0
-1515 270 1517 0
-1577 186 1578 0
-154 2097 0
-1159 74 1161 0
-1306 -184 1308 0
-332 333 0
-773 -47 0
-1386 -92 1388 0
-312 311 0
-1574 186 1576 0
-1939 1941 0
-367 8 369 0
-629 -316 630 0
-1056 1062 0
-1099 1100 0
-452 453 0
-1745 -120 1746 0
-1872 -248 0
-984 171 986 0
113 1659 0
-1219 1220 0
94 1380 0
-130 1901 0
-131 1936 0
-1544 293 1546 0
-1985 295 1987 0
-583 -31 0
-1040 1042 0
-162 2177 0
-207 -101 0
-1623 1624 0
-209 -113 0
-636 637 0
-841 842 0
-457 459 0
-1477 -173 1479 0
-174 173 0
-852 195 0
-919 -57 921 0
-1948 1949 0
-344 -4 346 0
-624 318 0
-916 251 917 0
-759 46 761 0
-1217 -76 1219 0
-1807 1808 0
-1266 -83 0
-1711 262 1712 0
-1068 -68 0
3 336 0
-583 584 0
-26 538 0
-1802 202 0
-647 40 648 0
-203 725 0
-851 194 852 0
-1685 229 0
-1748 1750 0
-249 -29 0
-826 180 828 0
-966 968 0
-1829 221 0
-42 41 0
-237 -55 0
-341 -3 343 0
-350 5 352 0
-130 1914 0
-964 301 966 0
-1943 -210 0
-1470 1471 0
-1534 -271 0
-1965 -229 0
-252 1250 0
-223 -35 0
-1811 1815 0
-143 2060 0
-561 235 0
-887 888 0
-1455 -98 1456 0
-482 299 0
-1008 217 1009 0
-463 21 465 0
-165 500 0
-814 320 0
-1432 1439 0
-156 2126 0
-726 -205 0
-747 755 0
-177 1923 0
-1959 232 0
-22 485 0
-430 431 0
-1937 1940 0
-1453 -305 0
-2033 142 2035 0
-649 652 0
-318 0
-1979 1980 0
-872 55 874 0
-308 307 0
-1436 1441 0
-181 -61 0
-983 170 985 0
-1095 1096 0
-527 534 0
-209 -123 0
-954 955 0
-92 1365 0
-1840 -221 0
-1702 118 1704 0
-775 777 0
-1862 1863 0
-88 1335 0
-1924 132 1926 0
-1954 229 1956 0
-1026 65 1028 0
-265 -19 0
-1050 67 1052 0
-332 2 334 0
-395 -10 396 0
-1447 -96 1449 0
-792 289 794 0
-2025 142 2027 0
-176 175 0
-1989 140 1990 0
-771 -46 773 0
-2046 2047 0
-575 578 0
-2144 2149 0
-1604 1605 0
-1079 68 1081 0
-833 -179 835 0
-1495 200 0
-1650 326 0
-998 1006 0
-1235 239 0
-334 3 0
-1339 -227 0
-1463 1464 0
-1710 261 1711 0
-2015 313 0
-38 639 0
-380 381 0
-1297 184 0
-516 520 0
-850 193 851 0
-1338 -226 0
-6 362 0
-2161 -161 2163 0
-448 19 450 0
-1800 200 1801 0
-233 579 0
-1866 1869 0
-1205 1206 0
-2171 2173 0
-1290 -293 0
-1301 186 0
-94 1417 0
-763 764 0
-683 -300 685 0
