p cnf 2176 4092
-102 101 0
-1055 68 1057 0
-209 -25 0
-1145 -72 1147 0
-993 285 994 0
-1487 1493 0
-1400 93 1402 0
76 1190 0
-1166 1170 0
-1437 -227 0
-1530 1531 0
-290 1478 0
-1861 -203 1862 0
-407 12 409 0
-1196 244 0
92 1400 0
-877 170 879 0
-1933 1937 0
-431 14 433 0
-1913 1915 0
-2118 -159 2120 0
-286 285 0
-1471 -247 1472 0
-868 869 0
-913 -56 914 0
-124 1775 0
-217 1962 0
-1613 1618 0
73 1157 0
-23 515 0
-426 427 0
-935 211 936 0
-197 1153 0
-1272 1273 0
-886 -170 888 0
-233 1050 0
-1796 1798 0
-1807 327 1809 0
-1461 -98 1463 0
-2 345 0
-28 27 0
-2132 271 0
-35 662 0
-815 816 0
-733 184 734 0
-1072 1074 0
-261 -59 0
-475 -19 0
-148 147 0
-928 58 929 0
-1014 1015 0
-1365 300 0
-577 -30 0
-2014 -146 0
-2095 158 0
-1834 -179 0
-1198 1200 0
-212 211 0
-72 1125 0
-1593 -233 0
-1722 -118 0
-1781 1782 0
-902 56 903 0
-825 -260 826 0
-635 639 0
-1276 1280 0
-1165 76 1166 0
-352 353 0
-541 222 543 0
-125 1793 0
-2013 -145 0
-1791 313 0
179 0
-2106 2107 0
-571 241 572 0
-610 -169 611 0
-811 259 813 0
-1574 -215 1575 0
-677 678 0
-1718 -277 1719 0
-142 2005 0
-673 -255 0
-1613 175 1615 0
-1925 318 0
-1979 251 1980 0
-1590 -107 0
-995 287 996 0
-1629 -178 0
-1918 -281 0
-557 -224 0
182 524 0
-79 1243 0
-137 1939 0
-560 561 0
-108 1594 0
-523 183 0
-702 706 0
-926 58 0
-1707 1708 0
-191 1739 0
-1929 320 0
-2020 330 2022 0
-389 10 391 0
-109 0
-1103 324 1104 0
-1313 -86 0
-315 1380 0
-162 161 0
-1668 1672 0
-471 229 0
-1387 174 1388 0
-1007 -286 1008 0
-1547 1553 0
47 829 0
-1931 1936 0
-886 890 0
-1663 116 1665 0
-1590 1591 0
-94 1417 0
155 2089 0
-455 210 0
-1582 233 1584 0
-282 281 0
25 518 0
-2031 2034 0
187 1254 0
-537 28 539 0
48 830 0
-2097 219 0
-1589 1592 0
-1832 1834 0
-2049 -150 0
-1794 1797 0
-1800 -312 0
-848 -274 0
-1774 1775 0
-1653 1656 0
-2125 -252 0
-937 -56 939 0
-608 610 0
-999 -61 1001 0
-2048 -149 0
-24 23 0
-869 871 0
-1473 -98 0
-1044 -64 0
-218 1964 0
-811 812 0
42 728 0
-150 149 0
-1237 -287 1238 0
-1166 225 1167 0
-892 54 894 0
-2118 2123 0
-1578 1579 0
-1194 1196 0
-208 207 0
-568 30 569 0
-2146 164 2148 0
-1719 -278 1720 0
-1656 1659 0
-1984 -142 1986 0
-952 58 954 0
-1768 -123 0
-854 855 0
-570 240 571 0
-412 413 0
-1072 -271 0
-1398 -176 0
-865 324 0
-1811 329 0
-1179 1180 0
-957 964 0
-994 286 995 0
-426 -303 0
-498 23 500 0
-910 -56 912 0
-1143 199 0
-76 75 0
-596 597 0
-85 1338 0
-1946 1947 0
-1986 -249 1988 0
-1515 327 0
-796 -46 797 0
-923 57 925 0
-201 1657 0
-800 803 0
7 374 0
-260 259 0
-2000 144 2001 0
-36 641 0
-1328 275 0
-1382 1387 0
-1409 201 0
-1829 1830 0
-1241 -289 1242 0
-1844 1850 0
148 2039 0
-2126 160 2128 0
-1183 1187 0
-1246 1247 0
-1171 227 1172 0
-205 2037 0
-31 612 0
249 1978 0
-2013 2014 0
-669 -253 670 0
-241 802 0
-1739 -192 1740 0
-1085 297 0
-1865 -205 1866 0
-2 1 0
-681 40 683 0
-167 608 0
-444 -195 0
64 1029 0
324 1105 0
-261 1318 0
-377 240 0
-510 -24 0
-682 687 0
89 90 315 316 0
-925 929 0
-1084 297 1086 0
-122 121 0
-293 1780 0
-988 989 0
-826 -261 0
-867 870 0
-271 -151 0
-1024 -306 1025 0
13 431 0
-715 304 716 0
-1302 86 1304 0
-1755 1756 0
-1371 1373 0
-1326 88 1328 0
-1633 114 1635 0
-916 -195 917 0
-1974 1977 0
-1075 68 1077 0
-1853 1858 0
-1838 131 1840 0
155 2092 0
-93 1432 0
-1977 251 0
-305 1024 0
-138 1955 0
-2138 2140 0
-110 1608 0
-307 -69 0
-2080 2081 0
-401 -10 402 0
-1939 1940 0
-651 652 0
-1497 1498 0
-419 -274 0
49 50 51 52 295 296 0
-1120 173 0
-1135 73 1137 0
-1438 -96 1439 0
-1356 1357 0
-425 -303 427 0
111 1612 0
-1055 1056 0
-1395 -175 0
66 1052 0
-408 12 410 0
-164 2167 0
-742 -184 743 0
-2025 332 0
-102 1504 0
-835 836 0
-980 -257 981 0
-1701 1704 0
-1973 249 1974 0
-1216 1224 0
-413 416 0
-98 1474 0
-1962 -218 1963 0
-913 916 0
-20 490 0
-1386 175 0
-1849 204 1850 0
-784 243 0
-42 737 0
-1489 311 0
-313 -135 0
-1763 1765 0
-136 135 0
-2006 2007 0
-255 -45 0
-1258 1263 0
-718 719 0
-1238 1241 0
-550 -28 551 0
-1511 325 1513 0
-577 578 0
44 776 0
-1564 1565 0
-1423 1424 0
-256 255 0
-1039 1041 0
-54 884 0
-320 319 0
-1982 1991 0
-769 -223 770 0
-1170 226 1171 0
-50 854 0
-1347 -275 1348 0
-1901 136 1903 0
-1384 1388 0
-442 -16 0
-591 270 0
-1142 199 1144 0
-460 461 0
-253 674 0
-1607 1608 0
-1737 -191 0
-255 979 0
-1306 1307 0
-1951 219 1953 0
-5 367 0
-1972 142 1973 0
-2055 151 2057 0
-1888 1891 0
-2090 179 0
-2137 -162 0
-680 686 0
-2112 160 0
-647 36 649 0
-2070 152 2072 0
-1568 1572 0
-1733 193 0
-1932 1933 0
-2162 166 2164 0
-2136 -161 0
147 148 205 206 0
30 589 0
-386 8 388 0
-182 181 0
-1411 1412 0
-2170 -166 2171 0
-1610 1611 0
-168 610 0
-321 517 0
-969 970 0
-1815 1816 0
-1990 -251 0
-1152 -198 0
-444 446 0
-728 183 730 0
-386 387 0
-1374 -298 1375 0
-1955 1958 0
-128 1814 0
-1106 326 0
-1814 1817 0
-1693 1698 0
-762 -43 764 0
-1904 280 1906 0
-363 -5 365 0
-711 712 0
-1808 328 1810 0
-621 36 623 0
-50 49 0
-938 -57 940 0
-306 1026 0
-1274 84 1275 0
-453 18 454 0
119 1727 0
-2018 2023 0
-145 2026 0
-1478 1479 0
-2119 2120 0
130 1822 0
-1094 1096 0
-119 1755 0
-2085 -282 0
-337 3 339 0
-1036 1037 0
-915 918 0
-1799 1801 0
-585 -240 586 0
-2037 -206 0
-234 233 0
-2084 -281 0
-162 0
-424 -12 426 0
-1247 -310 0
-1662 1663 0
-26 527 0
-1914 -279 0
-1019 308 0
-1310 -84 1312 0
-839 275 0
-1079 1080 0
-676 -256 0
-972 -255 0
-509 -24 511 0
-223 772 0
-1520 -325 1522 0
-316 315 0
-1706 280 0
5 370 0
-656 661 0
-75 1201 0
-96 95 0
-482 21 484 0
-333 2 0
-181 -13 0
6 371 0
-507 -23 509 0
-1729 1730 0
-1402 94 1404 0
-1588 1589 0
2 337 0
-887 -170 0
-1996 142 1998 0
-2175 331 0
-1107 -70 1109 0
-1858 -132 1859 0
-668 -38 669 0
-1486 1487 0
173 1387 0
-2054 2055 0
-134 1910 0
-583 586 0
-2112 2113 0
-2032 -330 2033 0
-364 -6 366 0
-1278 211 1279 0
-2083 -281 2085 0
303 715 0
-1683 -248 0
-827 -261 828 0
-1463 -245 0
14 432 0
-767 770 0
-233 -83 0
-920 -197 921 0
-1607 -110 0
-1404 199 1406 0
-985 993 0
156 2093 0
-1 344 0
-1639 203 0
143 144 145 146 301 302 0
-1291 1295 0
-2145 164 2147 0
-223 -33 0
-1967 141 1969 0
-1213 1214 0
-46 45 0
-1276 212 1277 0
-1802 -313 0
150 2055 0
-850 -275 0
-16 445 0
-1411 -92 1413 0
-110 109 0
-1064 -67 1066 0
-141 1991 0
-1596 1598 0
-1670 248 1671 0
-1859 1862 0
-1631 1640 0
-1525 -328 0
-917 -196 918 0
-834 273 836 0
-1154 1156 0
-770 773 0
-1911 -135 0
-230 229 0
-1635 201 1637 0
-2100 2101 0
-11 416 0
-2164 2165 0
-450 454 0
-1679 1685 0
-813 260 815 0
-366 -221 0
-1885 -134 1887 0
-1722 1723 0
-321 870 0
-530 -182 532 0
-393 259 394 0
70 1100 0
-1862 1865 0
-1139 1140 0
-654 660 0
-44 769 0
-160 2135 0
-371 374 0
-118 1723 0
-909 -55 911 0
-91 1411 0
-1926 1929 0
-2134 -160 2136 0
-1259 1260 0
-273 -21 0
-703 -284 704 0
-2046 -148 2048 0
-808 48 810 0
-1396 -174 1397 0
-773 -225 774 0
-156 155 0
-141 2004 0
-861 322 863 0
-1358 90 1360 0
-56 916 0
-1318 -262 1319 0
-1584 1585 0
-1877 134 1878 0
155 0
-878 170 0
-795 -241 0
-1789 1790 0
-147 2046 0
-1561 1568 0
-338 3 340 0
-1021 1024 0
-1747 122 1749 0
-1001 1002 0
-1848 203 1849 0
-47 821 0
-1189 76 1191 0
-2082 -154 2084 0
-579 582 0
-1909 1910 0
-822 824 0
-383 -239 385 0
-698 -283 700 0
-770 -224 771 0
-961 257 0
-1006 1009 0
-119 1735 0
-469 20 471 0
-218 0
-1326 1327 0
-157 2117 0
-1468 1472 0
-378 -6 380 0
-983 992 0
-544 545 0
-2113 2116 0
-1451 246 1452 0
-1972 1975 0
-82 81 0
-1363 299 1365 0
-1336 277 1337 0
-2164 313 0
-1914 1916 0
-1230 -79 1232 0
-1095 -296 1096 0
-1510 1511 0
-131 1882 0
-1950 218 1952 0
32 597 0
-933 211 0
-2010 -267 0
-1088 1091 0
-364 368 0
-1715 1716 0
-592 -30 594 0
-1121 172 1122 0
-365 -6 0
-905 197 906 0
-2113 251 0
-1130 -172 1131 0
-1500 -309 0
-101 1501 0
-2148 293 0
-1330 1334 0
-1536 -189 1538 0
-1053 1054 0
-2040 2041 0
-954 59 956 0
-932 935 0
-1128 -172 0
-1995 -252 0
-1252 1253 0
-1515 1517 0
-397 -9 399 0
-477 -20 478 0
-490 493 0
-1957 -140 0
-290 289 0
81 1248 0
-1285 -84 1287 0
-1567 -214 0
-2160 2161 0
-1442 97 1444 0
-1378 1379 0
-763 -44 765 0
-752 758 0
76 1169 0
-1215 79 1217 0
-802 -242 803 0
-552 554 0
-1927 318 1928 0
-1135 1136 0
-120 0
-1277 1281 0
-611 -170 0
-61 1020 0
-1319 1321 0
-699 -283 0
-1562 1563 0
-1879 236 1880 0
-151 2066 0
-1261 1262 0
-1850 205 1851 0
-322 872 0
-586 -241 587 0
-1013 305 1015 0
94 1424 0
-1499 -102 0
1 0
-986 62 988 0
-216 215 0
-2086 2087 0
-1445 1446 0
-192 1741 0
-785 46 786 0
-1304 1305 0
-976 -255 977 0
-1532 190 1533 0
-1659 -204 0
-1360 297 1362 0
-1674 249 1675 0
-862 863 0
-373 8 0
-1003 -62 1004 0
-478 480 0
-741 744 0
-797 -241 798 0
-273 849 0
-1294 -211 1295 0
-1518 -102 1520 0
-90 1379 0
-420 421 0
-209 -33 0
-1521 -326 1523 0
-1770 1771 0
-1002 1005 0
-982 983 0
-85 1314 0
-1652 -201 1653 0
-2111 2115 0
-1464 1468 0
-327 1817 0
-1046 1047 0
-295 1095 0
107 108 109 110 263 264 265 266 0
-399 400 0
-720 -303 722 0
-1717 -118 1718 0
-48 823 0
-1954 1955 0
-604 605 0
-1713 -277 1715 0
-1449 1453 0
-1679 -116 1681 0
-843 -49 0
-1512 1513 0
-1648 1652 0
-2012 2013 0
67 1075 0
-204 203 0
-359 221 360 0
-1033 187 1035 0
-1711 1712 0
-814 261 816 0
-19 477 0
-1090 -70 0
7 386 0
-1619 177 1620 0
-293 -135 0
-948 -209 949 0
-1332 1336 0
-1696 1697 0
-1049 1050 0
-928 931 0
-870 872 0
-1113 1114 0
4 353 0
-1975 249 1976 0
-1098 -298 0
-345 348 0
183 733 0
-1154 -199 0
-1416 -199 0
-2021 2022 0
-1253 1256 0
-259 -21 0
-137 1954 0
19 481 0
-87 1366 0
161 2142 0
-274 0
-670 673 0
-130 129 0
-285 1009 0
-873 -324 0
-229 644 0
20 482 0
-855 856 0
-1412 -93 1414 0
-1437 1440 0
-858 52 860 0
-1831 -177 0
-1797 -128 1798 0
16 448 0
-1295 -212 1296 0
158 2109 0
-334 335 0
-191 -111 0
-314 313 0
-775 44 777 0
-221 -17 0
-1385 174 0
-1611 -318 0
-113 1651 0
-86 1339 0
-1300 1301 0
-1916 -280 0
-518 519 0
-1061 271 0
-531 -183 533 0
-858 859 0
92 1382 0
-1000 1004 0
-2173 -314 0
-912 -195 0
-1610 -317 0
-1714 -278 1716 0
-2107 -220 0
-56 55 0
-922 923 0
-1625 1626 0
-1504 1507 0
131 1867 0
-1484 1485 0
-1410 202 0
-843 844 0
-1827 179 0
-565 240 567 0
-1434 -95 1436 0
-1481 1490 0
-1184 1188 0
-488 254 0
-49 853 0
-1950 1951 0
-600 601 0
-144 2013 0
-529 -182 531 0
-1239 -289 0
-1809 1810 0
-382 -8 384 0
-2014 2015 0
-1260 -188 1262 0
-434 16 436 0
83 1274 0
-605 608 0
-1125 1130 0
-1273 212 0
-86 1316 0
-620 628 0
-2134 2135 0
-860 321 862 0
-239 585 0
-105 1568 0
78 1195 0
-1798 -311 0
-794 -46 0
-1981 -140 1983 0
-743 -185 744 0
-1692 1693 0
-584 587 0
-587 -242 0
-2154 2156 0
-1109 1110 0
-1372 1374 0
-624 630 0
-1251 1255 0
91 1399 0
-2089 156 0
-20 479 0
-1456 248 0
-2139 2141 0
-1735 1736 0
142 1975 0
-1434 1435 0
-1735 -120 1737 0
-307 1245 0
-922 56 924 0
-190 189 0
-1361 298 1363 0
116 1693 0
-1110 -324 1112 0
-2060 2061 0
-1847 132 1848 0
-1555 1559 0
71 1133 0
-1917 -280 1918 0
-1958 -140 1959 0
-334 181 0
-1477 1478 0
-1720 -279 1721 0
-1740 1742 0
-1093 1095 0
-1512 325 0
-714 305 0
-2001 2003 0
-1603 1604 0
113 1660 0
-358 6 359 0
-956 957 0
-1799 -311 1800 0
-1985 -142 1987 0
-2065 2067 0
-1161 1162 0
-953 962 0
-1418 1420 0
105 1576 0
-1080 295 1082 0
-229 -27 0
-1020 1021 0
-1176 1182 0
-1360 1361 0
-1239 1242 0
-1018 307 0
-1255 189 1256 0
-1307 263 1309 0
-1627 -176 1628 0
-667 -253 0
-1441 96 1443 0
-437 438 0
-396 -9 398 0
-1624 -176 1626 0
-1115 72 1117 0
-1102 1104 0
-116 115 0
-771 -225 0
-92 1412 0
-1685 -247 1686 0
-1236 -288 0
-745 42 747 0
-1180 1184 0
-1392 -173 1394 0
-1544 1545 0
-150 0
326 1516 0
-398 402 0
-31 604 0
-762 763 0
-451 18 0
-457 -17 459 0
-697 -40 699 0
-1583 234 1585 0
-1873 235 1875 0
-652 253 654 0
-2035 -148 0
-2155 -293 0
-300 299 0
-729 183 731 0
-185 1040 0
-1048 -232 0
-1165 1169 0
-87 1346 0
-1058 270 1060 0
-924 57 926 0
-1442 1449 0
-844 846 0
-289 1477 0
-1844 204 1846 0
-1087 1088 0
-1869 1870 0
-2007 -144 2009 0
-584 -241 0
-1227 290 0
-123 1774 0
68 1076 0
-1207 1208 0
-1809 328 1811 0
-1014 305 1016 0
-1349 1353 0
-69 1107 0
-104 103 0
-721 -304 723 0
-829 830 0
-44 791 0
-1516 327 1517 0
-1737 1738 0
-1489 1494 0
-1311 -85 1313 0
-288 287 0
-588 30 590 0
-1651 -114 1652 0
-1782 127 1784 0
-30 582 0
-126 1777 0
-1795 1796 0
-1046 -66 0
-104 1536 0
-289 -87 0
-390 10 0
-421 303 423 0
-56 938 0
46 806 0
-1634 114 1636 0
-1897 134 1899 0
-2016 -302 0
-1921 136 1923 0
-1095 1097 0
-275 -67 0
35 647 0
-1615 1619 0
-664 -37 666 0
41 727 0
-1819 -329 1820 0
-2059 257 2061 0
-30 29 0
-606 -167 0
-896 897 0
-2015 -301 0
-1088 -69 1090 0
-155 2100 0
36 648 0
-2140 -271 2141 0
-1016 1017 0
-1557 214 1558 0
-518 26 520 0
-1016 306 1018 0
-1005 -286 0
-16 457 0
-1783 1784 0
-433 434 0
-169 889 0
-1868 133 1870 0
-1882 -132 1884 0
-1559 216 0
-76 1202 0
-637 640 0
21 497 0
-1462 -245 1464 0
-617 618 0
-1666 1667 0
-1616 176 0
-1784 128 1786 0
-2142 162 2144 0
-1424 1429 0
-1830 -177 1832 0
-899 905 0
-1083 1084 0
-778 786 0
-1224 287 1225 0
-353 5 355 0
-866 -52 868 0
-1730 192 1732 0
-1345 1349 0
-1709 1710 0
-1971 249 0
-522 182 523 0
-782 788 0
-1146 1149 0
-828 -262 0
-485 486 0
-58 968 0
-525 184 0
-1716 -279 0
-1289 -212 0
-164 163 0
-1670 1674 0
-107 1600 0
-2050 -150 2051 0
-100 1496 0
-1529 1533 0
113 1640 0
-709 40 711 0
-665 -38 667 0
-1067 1069 0
-275 -77 0
-1160 76 1162 0
-707 -285 708 0
-908 913 0
-1691 -250 0
-2172 -313 2173 0
-888 891 0
-309 1507 0
-2161 166 2163 0
-1776 1777 0
-951 -212 0
329 2023 0
-1655 1658 0
141 1972 0
-12 418 0
-1597 1599 0
-64 1045 0
-727 42 729 0
-503 24 504 0
-663 -37 665 0
-868 -321 0
-688 692 0
-751 752 0
-677 38 679 0
-1596 -234 1597 0
-90 89 0
-1418 -200 0
-558 28 560 0
-864 323 0
-1002 -285 0
-1518 1519 0
-2116 252 0
-493 495 0
-626 231 0
54 893 0
-970 -60 972 0
-1210 -245 1212 0
-1148 -74 0
-1481 101 1483 0
-1803 -313 1804 0
-884 -169 886 0
65 1051 0
106 1577 0
-274 273 0
-1553 213 1554 0
-428 -14 0
-1843 1844 0
-2005 -143 2007 0
-1061 1062 0
-1318 1320 0
-996 288 0
-414 415 0
-40 705 0
-1510 102 1512 0
-1783 127 1785 0
-619 620 0
-361 -4 363 0
-1770 -265 0
-546 -26 548 0
-1330 88 1331 0
-2047 2050 0
-2168 2169 0
-16 15 0
-1158 1165 0
-1932 -317 1934 0
-346 -3 0
-598 599 0
45 785 0
-352 4 354 0
31 32 33 34 207 208 0
-879 171 0
-1343 1348 0
-1729 191 1731 0
-2071 153 2073 0
-959 965 0
-83 1310 0
-1242 -290 0
-901 906 0
-1494 312 0
-361 362 0
-780 787 0
-151 2078 0
-399 -10 0
-483 21 485 0
-1769 1770 0
-1035 188 0
-1053 67 1055 0
35 627 0
-1128 1129 0
-481 482 0
-1393 -174 1395 0
-1527 1532 0
-1077 69 1079 0
-1738 -192 0
-340 341 0
-930 210 0
-479 -229 480 0
-1248 1249 0
-2092 156 2094 0
-2094 2095 0
-2139 -271 0
-1483 102 1485 0
-91 1390 0
-1973 1976 0
-1069 1071 0
-33 614 0
-1531 1534 0
-4 3 0
-1788 312 1790 0
-2166 -164 2168 0
-2093 2096 0
-1562 -105 1564 0
-295 -61 0
-1432 1433 0
-1558 215 1559 0
-1311 1314 0
59 962 0
-990 991 0
26 519 0
-1111 -324 1113 0
-1980 252 0
-2149 294 0
-989 286 991 0
-548 549 0
-1331 1335 0
-1315 -261 0
-2003 268 0
-602 169 0
-203 1864 0
-439 -14 441 0
-1872 235 1874 0
-67 1087 0
-3 348 0
-1968 141 1970 0
-1207 -243 1209 0
-97 1473 0
-403 -260 0
-977 -256 978 0
-1123 174 0
-1419 -200 1420 0
-19 489 0
63 64 65 66 231 232 233 234 0
-783 242 0
-973 -60 974 0
-1108 -323 1110 0
-579 -30 580 0
-270 269 0
-736 -42 738 0
-1499 1500 0
-1575 -216 0
-1762 1764 0
129 1821 0
-691 285 692 0
-1961 1963 0
-1057 1058 0
-894 55 896 0
-1775 -125 0
-1945 140 1947 0
-79 1234 0
-1903 1904 0
-694 701 0
-795 798 0
-1000 -62 1002 0
-1214 1223 0
-670 -254 0
-821 -48 822 0
-1940 -193 0
-634 -35 636 0
-333 334 0
-100 1476 0
-1349 -277 0
-642 -230 643 0
-851 -275 852 0
-877 881 0
-746 43 748 0
-1120 1123 0
-2087 2088 0
-262 0
-1218 1225 0
-1299 85 1301 0
120 1744 0
-138 137 0
-121 1767 0
-1887 1890 0
-251 -149 0
-548 -27 0
-553 -222 0
-1566 1567 0
-388 9 390 0
142 1997 0
-1425 1426 0
-1041 1043 0
-793 -46 795 0
8 376 0
-599 168 601 0
-342 343 0
-322 321 0
-66 1064 0
-1367 -89 1369 0
-1867 132 1869 0
-1448 246 0
-487 253 0
123 124 125 126 291 292 293 294 0
1 336 0
-1308 1309 0
-526 527 0
-929 209 930 0
-1277 213 0
-561 569 0
-791 -45 793 0
-1270 84 1272 0
-5 378 0
-1388 175 1389 0
-64 63 0
-1570 1574 0
-1202 -77 1204 0
-1654 -201 1655 0
-1934 1935 0
-2122 -251 0
-1335 276 1336 0
-1391 1396 0
-1892 -236 1893 0
-1804 -314 0
-184 183 0
-596 32 598 0
-852 -276 0
-1313 1315 0
-285 -49 0
-929 932 0
158 2098 0
-42 761 0
-909 910 0
-1721 -280 0
-248 247 0
-312 1803 0
-1195 243 1196 0
-467 468 0
13 14 167 168 0
-519 181 521 0
-1676 1677 0
-388 389 0
-1021 -305 1023 0
-1379 -315 0
-1530 190 0
-261 -65 0
-850 852 0
-265 1771 0
-128 0
-2142 2143 0
-792 793 0
97 1449 0
-1758 1760 0
-671 674 0
-54 908 0
189 1532 0
-84 1294 0
-594 -269 0
-609 -169 0
-1147 -73 0
-1159 75 1161 0
-272 0
-203 -119 0
-875 880 0
-497 22 499 0
-739 -184 741 0
137 138 193 194 0
-1884 1885 0
-713 304 0
-947 -58 948 0
-615 -207 0
-1394 -174 0
-1878 235 1879 0
-704 -285 0
-1743 1744 0
-975 978 0
69 1099 0
-1062 272 0
-1190 77 1192 0
-209 -41 0
-1495 -100 1497 0
-1707 -116 1709 0
-1725 -301 0
-13 428 0
181 522 0
-737 -183 739 0
-1505 1508 0
-737 742 0
-1163 225 0
105 1552 0
-1655 -202 1656 0
-317 -127 0
-927 209 0
-67 1067 0
-264 1605 0
-459 463 0
-1886 -134 0
-1325 1331 0
-448 17 450 0
-1183 -226 1184 0
-257 -77 0
-950 -211 951 0
88 1355 0
-60 59 0
-1602 -110 0
-293 -143 0
-1161 76 1163 0
-974 -255 975 0
-124 123 0
-1612 112 1614 0
-243 -57 0
-1198 245 0
-14 440 0
-244 243 0
-663 668 0
-1637 202 1639 0
-1680 -116 1682 0
-1837 130 1839 0
-1501 -102 1502 0
-259 -29 0
-1153 1155 0
-1756 1759 0
-769 772 0
-716 305 717 0
-1231 1235 0
-746 755 0
-533 -184 0
-308 1246 0
-1076 69 1078 0
-117 1717 0
-73 1149 0
-1856 1857 0
-1215 1216 0
-103 1535 0
-2111 160 2113 0
-734 185 735 0
-473 -18 475 0
-1129 -173 0
-532 -183 0
-632 633 0
-2101 -157 2103 0
-335 182 0
-511 514 0
-1963 -219 0
-170 169 0
-1838 1847 0
-1399 1400 0
-2042 150 2044 0
-1561 -105 1563 0
-1208 -244 1210 0
-296 295 0
-1608 -315 0
-241 -35 0
-1419 1421 0
-515 516 0
-297 -79 0
-700 -284 0
-1822 177 1824 0
-1923 1924 0
-1282 1283 0
-1681 1686 0
-2008 -144 2010 0
-1141 1142 0
-2128 2129 0
-269 1071 0
-1987 1988 0
-699 700 0
-49 845 0
-1653 -202 0
-578 581 0
-1748 215 1750 0
-38 37 0
-457 462 0
-558 559 0
93 1423 0
55 902 0
116 1672 0
-1346 -88 1347 0
-416 -12 417 0
-655 254 0
-1078 70 1080 0
-883 884 0
317 1927 0
-222 221 0
-1791 1792 0
-441 442 0
-1426 96 1428 0
-1549 1554 0
-80 1244 0
-1102 324 0
323 1103 0
-433 15 435 0
-824 826 0
-215 -113 0
-703 707 0
-374 8 375 0
-82 1283 0
-1172 228 0
-625 626 0
-1591 1593 0
-501 24 0
-304 303 0
-2174 2175 0
74 1158 0
-1756 -121 1758 0
-1149 1151 0
-1412 1415 0
-1669 1673 0
-1392 1393 0
-936 212 0
-1051 66 1053 0
-99 1495 0
-387 9 389 0
-92 1391 0
117 118 299 300 301 302 0
-1924 318 1926 0
-84 83 0
-2141 -272 0
-515 -24 0
-1974 250 0
-809 810 0
-311 -109 0
-534 26 536 0
-1382 173 1384 0
-551 553 0
-1458 -97 1460 0
-2027 -329 2029 0
-315 0
3 352 0
-366 369 0
-939 -57 941 0
-200 1421 0
-1317 -262 0
-2042 2043 0
-257 -133 0
-1334 275 1335 0
-1415 -94 1416 0
-1540 -191 0
-1901 1902 0
-680 40 682 0
-74 1151 0
-1907 281 0
-2174 166 0
-1459 1460 0
-1492 310 1493 0
-292 291 0
-1761 -215 1762 0
179 2091 0
-1684 -116 1685 0
-760 -42 762 0
-1362 298 1364 0
-876 877 0
-492 494 0
-625 230 0
-1146 -73 1148 0
-572 242 0
-1650 -201 0
-831 49 833 0
-1832 -178 0
-789 244 0
15 447 0
-1446 245 1448 0
157 2108 0
-1731 192 1733 0
-1546 105 1548 0
-1201 1202 0
-1711 -118 1713 0
-34 33 0
-1517 328 0
-89 1378 0
153 2074 0
-1891 -235 1892 0
-375 377 0
-638 641 0
-98 97 0
52 859 0
-975 -256 0
-1968 1969 0
-402 -259 403 0
181 335 0
-1526 1527 0
-46 818 0
-1401 93 1403 0
-1385 1386 0
-270 1073 0
-218 217 0
-738 739 0
-943 944 0
-1312 -85 0
-2152 2153 0
-2119 -159 2121 0
-864 865 0
-201 -103 0
-1283 1290 0
29 588 0
-1203 -77 1205 0
-1346 1350 0
101 1510 0
-1580 108 1582 0
-422 423 0
-1790 313 1792 0
-458 -17 460 0
-1268 1269 0
-763 767 0
-889 -170 890 0
-39 718 0
-135 1913 0
-1048 1049 0
71 1115 0
-1287 1292 0
-2035 2036 0
-747 748 0
144 2002 0
-253 -29 0
-606 607 0
-1369 -90 0
-1068 1070 0
-32 613 0
-841 -48 843 0
-144 143 0
-1279 212 1280 0
-1589 -107 1591 0
-1829 -130 1831 0
-2156 -293 2157 0
-1855 1859 0
-1219 287 1221 0
-1895 -237 1896 0
-1368 -89 0
-1777 1778 0
-790 791 0
-1636 1637 0
-1343 -275 1345 0
-1268 83 1270 0
-65 1046 0
-328 327 0
-542 222 544 0
-1897 1898 0
-1127 -172 1129 0
-2066 -152 2067 0
-1115 1116 0
-1767 -122 0
57 928 0
-94 1433 0
-199 -81 0
-12 11 0
-532 533 0
-1693 117 1695 0
-2094 157 0
79 80 307 308 309 310 0
-134 1891 0
-688 285 0
-710 303 712 0
-70 69 0
-1323 87 1325 0
-1397 -175 1398 0
-903 195 904 0
-1761 1763 0
-196 195 0
-1503 1506 0
-1526 104 1528 0
-1823 1824 0
-161 2138 0
-17 462 0
-1702 1705 0
-2028 2029 0
-1381 1382 0
-2067 -257 0
-740 741 0
-70 1093 0
-1755 -120 1757 0
-498 503 0
-1883 -133 1885 0
-1664 116 1666 0
-1984 1992 0
-278 277 0
-931 209 932 0
-1504 -309 1505 0
-1663 1669 0
-1869 133 1871 0
-1386 1389 0
-2148 2149 0
-1366 1367 0
-1153 -198 1154 0
-152 2079 0
-1542 -191 1543 0
-58 57 0
-924 925 0
-1231 -80 1233 0
-783 784 0
-1238 -288 1239 0
-233 1596 0
-1988 1994 0
-2053 -238 0
-107 1592 0
-239 -19 0
106 1556 0
-1910 1913 0
-20 19 0
-1695 118 1697 0
-823 -259 824 0
-51 855 0
-1702 278 1703 0
-146 2015 0
-2153 2155 0
-1131 -173 1132 0
-2091 180 0
-271 -115 0
-34 615 0
-2034 -332 0
-666 667 0
-332 -331 -166 -165 0
-1306 262 1308 0
-1875 1876 0
-1228 1229 0
-967 -58 969 0
-1949 218 1951 0
-1251 188 1253 0
-136 1915 0
-2080 -153 2082 0
-1632 1633 0
-1511 1514 0
-607 609 0
-1174 -75 1176 0
-330 329 0
-1293 -213 0
-1900 136 1902 0
-1816 1818 0
-589 269 591 0
-1695 1699 0
-1959 -217 0
-1158 75 1160 0
-408 409 0
-1089 -69 0
-1374 1376 0
-1709 -117 1711 0
-52 867 0
-1132 -174 0
-1175 1176 0
-1452 1456 0
-8 7 0
112 1613 0
-2078 -152 2080 0
-1034 1035 0
-1759 -122 1760 0
-1503 -310 0
-499 23 501 0
-349 351 0
-1765 -217 1766 0
-72 71 0
-592 593 0
-1942 1943 0
-385 -240 0
-429 -167 0
-1214 79 1216 0
-2068 -257 2069 0
29 568 0
-732 735 0
-192 191 0
-1962 1964 0
25 534 0
-796 799 0
-1835 -179 1836 0
-301 -125 0
-2126 2127 0
-120 1756 0
83 1298 0
151 2070 0
-1283 -83 1285 0
-916 919 0
-957 255 959 0
-1661 1668 0
-1383 173 1385 0
-1656 -203 0
-474 477 0
-491 -21 0
-893 902 0
-353 358 0
-295 857 0
-1101 1102 0
84 1299 0
-1459 -97 1461 0
-2067 2069 0
152 2071 0
-1362 1363 0
-129 1829 0
-547 -27 549 0
-1221 1222 0
-840 276 0
-2057 152 2059 0
-162 2140 0
-1228 -78 1230 0
-799 802 0
-779 780 0
-118 117 0
-1624 1628 0
-984 985 0
-1642 202 1643 0
-1533 191 1534 0
-755 44 756 0
-1546 1547 0
-445 -195 446 0
-1954 -138 1956 0
-1614 175 1616 0
-940 948 0
-1604 -264 0
-764 765 0
-1751 1752 0
-643 646 0
-872 -323 873 0
-171 1130 0
95 1429 0
-1428 227 0
-830 49 832 0
-842 845 0
-302 301 0
-2018 329 2020 0
-1340 -87 1342 0
-918 -197 0
-1871 1872 0
-1138 197 1140 0
-400 403 0
-1573 -214 1574 0
-818 -47 820 0
-2120 -160 2122 0
-1571 1575 0
-1288 1289 0
-292 1779 0
-647 648 0
-1989 -250 0
-357 221 0
-506 507 0
-125 1776 0
-490 -21 492 0
-750 223 752 0
-44 43 0
-1479 -292 0
-1052 67 1054 0
-1906 281 1908 0
-313 -145 0
-97 1465 0
-831 832 0
-559 29 561 0
-1789 312 1791 0
-257 -65 0
-538 28 540 0
-1030 1031 0
-1478 -291 0
-1150 -197 0
-1472 -248 0
-1890 -236 0
-1531 191 0
-588 589 0
-301 -135 0
-1420 -201 0
-730 734 0
-1633 1641 0
-266 1772 0
-990 286 0
-1292 1296 0
-1234 1237 0
-2036 -205 0
-1836 -180 0
-1857 -203 0
-573 574 0
-452 455 0
-30 593 0
-1332 276 1333 0
-252 251 0
-1637 1643 0
-1824 178 1826 0
-617 34 619 0
77 1213 0
-1340 1341 0
-1680 1681 0
-2064 -151 0
-582 -239 583 0
-1539 1540 0
-1802 1804 0
-898 899 0
-270 0
-637 -229 0
-1218 287 1220 0
72 1134 0
53 892 0
-373 375 0
-121 1759 0
-976 979 0
-1943 139 1945 0
-496 -254 0
-978 -257 0
-635 -36 637 0
-1622 1627 0
-1723 1724 0
-1772 -267 0
-114 1654 0
114 1661 0
-1920 -282 0
-484 22 486 0
-14 429 0
-856 -295 0
-1298 84 1300 0
-519 522 0
-938 947 0
-499 500 0
-1164 226 0
-805 46 807 0
-178 177 0
-1684 1688 0
-1407 1408 0
-1563 1569 0
-291 -109 0
-1023 1025 0
-1136 74 1138 0
-2043 237 2045 0
-639 642 0
-786 241 787 0
-711 303 713 0
-1091 -70 1092 0
-1266 1267 0
-347 -4 0
-1987 -249 1989 0
-265 1606 0
-235 1894 0
-1114 -326 0
-382 383 0
-747 43 749 0
-2117 -158 2119 0
-265 -115 0
-1622 -175 1624 0
-1960 -217 1961 0
-1426 1430 0
-1113 -325 0
-1939 -138 0
-148 2047 0
-1406 200 1408 0
-1101 323 0
-1439 -227 1440 0
-566 567 0
-1708 1717 0
-182 -181 -2 -1 0
-1753 217 0
-2135 2138 0
-1474 1475 0
-120 1736 0
-1805 128 1807 0
-1090 1092 0
-1779 -293 0
-2102 -157 2104 0
-1887 -235 0
-63 1044 0
-158 2118 0
-792 -45 794 0
-109 1602 0
-1168 1172 0
-1185 -225 1186 0
-1258 -187 1260 0
-683 283 0
-467 19 469 0
-575 -29 577 0
-1915 1917 0
-1211 -245 0
-132 1883 0
-753 224 0
-343 208 0
-1324 87 1326 0
-1364 299 0
-1635 1642 0
-543 223 545 0
-1075 1076 0
-1736 1739 0
-428 429 0
-1615 176 1617 0
-1983 1984 0
88 1334 0
-1839 131 1841 0
-2061 258 0
-476 -20 0
-1947 217 1949 0
-1509 -312 0
-1798 1800 0
-1538 -190 1540 0
-753 754 0
-92 91 0
-1555 215 0
-1116 171 1118 0
-817 818 0
-1646 -113 1648 0
-1520 1521 0
-1993 -250 1994 0
-1725 1726 0
-2121 -160 0
-527 -181 529 0
-880 170 881 0
-115 1684 0
-50 847 0
-937 938 0
-276 275 0
-1233 -287 0
-1012 62 1014 0
-106 1589 0
-354 355 0
-257 -121 0
-1403 1404 0
-708 -286 0
-340 4 342 0
-1034 187 0
-1708 -117 1710 0
-2108 2109 0
-882 172 0
60 983 0
-1681 -247 1683 0
-1348 -276 1349 0
-93 1415 0
-367 -6 368 0
82 1267 0
-656 255 0
-679 680 0
-317 1936 0
-2069 -258 0
-18 17 0
-45 817 0
-549 -28 0
-88 1350 0
130 1838 0
-2030 -330 0
141 1996 0
-2049 2051 0
-243 -65 0
-1145 1146 0
-1086 298 0
-363 364 0
-1209 1210 0
-562 563 0
-825 827 0
-983 61 985 0
-704 708 0
153 2086 0
-1771 1772 0
-1650 1653 0
-1333 277 0
77 1193 0
-187 1263 0
-1026 -307 1027 0
-1592 1594 0
-2056 151 2058 0
-799 -241 800 0
-2175 2176 0
-1870 1878 0
154 2087 0
-75 1181 0
-766 769 0
-226 225 0
-1341 -88 1343 0
-1975 1978 0
-1636 201 1638 0
-1640 114 1641 0
-1917 1919 0
-1037 -185 1039 0
-644 -230 645 0
-1124 -72 1126 0
-1271 1276 0
-731 732 0
-1485 309 1487 0
-1874 1880 0
-347 349 0
243 1197 0
-1888 -134 1889 0
-1474 -99 0
-1956 -139 0
-413 -11 415 0
-1193 1195 0
-1858 1861 0
-1994 -251 1995 0
-1476 -289 0
-387 392 0
-1339 -87 1341 0
-1333 1337 0
-1960 1962 0
-1961 -218 0
-1853 -131 1855 0
-1538 1542 0
-614 615 0
-871 873 0
-1380 -316 0
-473 474 0
-813 814 0
-1875 236 0
-277 -109 0
-152 151 0
-1905 280 1907 0
-449 17 451 0
181 0
-48 0
-692 286 0
-1352 -277 1353 0
-1580 1581 0
-875 169 877 0
-845 -50 846 0
-939 940 0
-639 -229 640 0
-555 557 0
-757 224 758 0
-818 821 0
169 880 0
-985 62 987 0
-1196 1198 0
-560 29 562 0
-601 169 603 0
-997 998 0
-356 357 0
-1963 1965 0
-934 210 935 0
-37 668 0
-1817 -328 1818 0
-1905 1906 0
-797 800 0
-1209 -244 1211 0
-1240 -288 1241 0
-583 -240 584 0
-593 -269 595 0
-1017 307 1019 0
-1322 1323 0
-693 -38 695 0
-540 541 0
-696 702 0
-111 1621 0
-1910 -135 1912 0
325 1514 0
-301 1726 0
-1487 310 1489 0
-2089 2090 0
-1447 245 0
-1760 -215 0
-78 77 0
-1483 1491 0
-1647 1648 0
-1967 1972 0
-921 -198 0
-1545 1552 0
-1862 -204 1863 0
-686 283 687 0
-262 261 0
-161 2150 0
-1127 1131 0
-1467 1471 0
-1831 1832 0
-1828 180 0
-622 629 0
-40 719 0
-685 689 0
-1043 -188 0
-1424 95 1426 0
8 387 0
-817 -46 819 0
-95 1457 0
-1671 249 0
-2147 293 2149 0
-150 2052 0
-464 -210 0
-2015 2016 0
-626 631 0
-727 728 0
-1859 -203 1860 0
-1777 -291 0
-659 254 660 0
-2075 281 0
-1893 -237 0
-563 570 0
-316 1610 0
-2097 2099 0
-257 -141 0
-1315 1317 0
-2103 -158 2105 0
97 98 99 100 289 290 291 292 0
-931 934 0
-1714 1720 0
-911 912 0
-146 2027 0
-1514 1516 0
-853 -50 0
162 2143 0
-250 249 0
-1393 1397 0
-1405 199 1407 0
-1373 1375 0
-1757 1758 0
-469 470 0
-1860 -204 0
-404 10 406 0
-1661 115 1663 0
-412 -10 414 0
-2082 2083 0
-1441 1442 0
-794 795 0
-2028 -329 2030 0
-959 256 961 0
-640 -230 0
-673 676 0
-152 2068 0
-653 654 0
-678 39 680 0
137 1942 0
-280 1919 0
-320 -319 -154 -153 0
-89 1370 0
-298 1376 0
-465 18 467 0
-981 -258 0
-1119 1120 0
-1522 -326 1524 0
138 1943 0
-1389 176 0
-1703 1706 0
-536 537 0
-2047 -149 2049 0
-309 -89 0
-1745 1746 0
-395 396 0
-165 2170 0
-2008 2009 0
-1568 -106 1569 0
-1854 -131 1856 0
-200 199 0
-720 721 0
-608 -168 609 0
-806 47 808 0
-898 195 900 0
-261 -77 0
-2176 332 0
-258 257 0
-409 273 411 0
-2027 2032 0
-1103 1105 0
-1969 1973 0
-1045 1046 0
-13 439 0
-1999 144 0
-1570 -214 1571 0
-59 997 0
-1482 101 1484 0
-52 856 0
-1323 1330 0
-260 827 0
-1742 -194 0
-1745 121 1747 0
-379 -7 381 0
40 710 0
-2075 2077 0
-1112 -325 1114 0
-1054 68 1056 0
-1308 263 0
-124 1770 0
-1890 1893 0
-1502 -309 1503 0
-1180 -226 0
-845 847 0
-447 448 0
-440 -15 442 0
-1327 1332 0
-502 283 0
-495 -253 496 0
-126 125 0
-291 1778 0
37 677 0
-1996 1997 0
-2100 -156 2102 0
-1179 -225 0
-193 1941 0
-1817 1819 0
-1754 218 0
-1413 1414 0
-211 -63 0
-70 1108 0
95 1441 0
-1200 246 0
-1550 213 0
-971 972 0
-400 -259 0
-1319 -263 0
-310 309 0
-1660 114 1662 0
319 2088 0
-958 255 960 0
-1617 1620 0
-130 1853 0
-28 552 0
-1496 1501 0
-2052 -237 2053 0
-1514 326 1515 0
-1528 189 1530 0
-459 -18 461 0
-713 714 0
-52 51 0
-1621 1622 0
-893 55 895 0
-1500 1503 0
-1480 1481 0
-839 840 0
-1096 1098 0
-1694 117 1696 0
-1192 78 0
-1699 1702 0
-172 171 0
-1443 97 1445 0
-1038 1039 0
-2093 157 2095 0
-418 -273 419 0
-917 920 0
-953 59 955 0
-1631 113 1633 0
-1982 -141 1984 0
-881 171 882 0
-236 235 0
-90 1372 0
-506 -22 508 0
-1029 185 1031 0
-1805 1806 0
-1840 1848 0
-237 -139 0
-648 37 650 0
-1664 1665 0
-1371 -297 0
-130 1830 0
-1585 235 1587 0
-1370 -90 1371 0
-435 16 437 0
-1263 -188 1264 0
-1930 -136 1932 0
-598 167 600 0
-2130 2131 0
-660 255 661 0
51 858 0
-1253 189 0
-102 1519 0
-1989 1990 0
-756 223 757 0
-1662 115 1664 0
-580 583 0
42 746 0
-823 825 0
-632 -34 634 0
-1009 -286 1010 0
-522 524 0
-678 685 0
-694 -39 696 0
-143 2012 0
-271 -123 0
-222 556 0
-73 1173 0
-1846 205 0
-919 -196 920 0
-965 257 966 0
-1617 177 0
-1261 -188 0
-885 886 0
-1148 1150 0
-1272 211 0
-1731 1732 0
-215 1763 0
-1549 213 1551 0
-2127 161 2129 0
-702 -283 703 0
-61 1003 0
-1177 -76 1179 0
-1182 -225 1183 0
-460 -18 0
84 1278 0
-1935 1938 0
-2056 2057 0
-1551 1555 0
-279 -123 0
-910 914 0
131 1847 0
-1614 1615 0
-1151 -197 1152 0
-9 412 0
-744 -186 0
85 1322 0
-1031 186 1033 0
-1473 1474 0
-306 305 0
28 559 0
-666 -38 0
-1004 -285 1005 0
-1099 70 1101 0
-2048 2049 0
75 1165 0
-2021 330 0
-952 953 0
86 1323 0
-914 -195 915 0
-1689 -248 1690 0
-1669 247 1670 0
-710 715 0
-1175 -75 1177 0
-1414 1416 0
-991 287 0
-510 511 0
-303 724 0
-622 229 624 0
-198 1155 0
-1118 172 1120 0
-1293 1297 0
-199 1419 0
-2062 -150 2064 0
-1235 1238 0
-1527 189 1529 0
-1769 -124 0
-60 976 0
-48 47 0
-1912 -136 0
-1739 1741 0
-112 111 0
-714 717 0
-942 -209 944 0
-1496 -101 1498 0
125 1781 0
-1861 1864 0
-2154 -164 2155 0
-567 241 0
-2122 2125 0
-772 -224 773 0
-847 -273 848 0
-232 231 0
-2102 2103 0
-1461 1462 0
-374 376 0
-1565 -213 1567 0
163 2158 0
-1584 234 1586 0
-2166 2167 0
-1011 -288 0
-195 -31 0
-878 879 0
-494 496 0
-815 261 0
-1705 279 1706 0
-1724 1725 0
-271 -133 0
-148 2036 0
-1645 1646 0
-1902 279 1904 0
-1067 -68 1068 0
-1284 -83 1286 0
-1203 1204 0
-1523 -327 1525 0
-1685 1689 0
-961 966 0
-1024 1026 0
-640 643 0
-1796 -128 0
-100 99 0
-1666 247 0
-671 -253 672 0
-1528 1529 0
-197 -63 0
-158 157 0
-1936 -318 1937 0
-2115 251 2116 0
-1038 -185 0
-1586 1587 0
-945 946 0
-1855 -132 1857 0
-291 0
-284 283 0
-1288 -211 0
-1690 -249 1691 0
-313 -153 0
-1851 206 0
-1911 1912 0
-1270 1271 0
-1291 -211 1292 0
-1938 -320 0
9 392 0
-62 1006 0
-1008 1011 0
-1285 1291 0
-2019 329 2021 0
-2099 220 0
-1139 197 1141 0
-15 443 0
157 2096 0
-110 1603 0
-26 25 0
-546 547 0
-781 241 783 0
-249 -133 0
-1303 261 1305 0
-1070 1072 0
-1156 -200 0
-116 1708 0
-146 145 0
-1281 214 0
-751 223 753 0
-1012 1013 0
-81 1257 0
-392 10 393 0
-1916 1918 0
-356 6 0
-754 225 0
-235 -113 0
-314 0
-210 209 0
-1779 1780 0
-429 430 0
-1744 121 1746 0
-225 -63 0
-207 -15 0
-1274 1278 0
-1372 -297 1373 0
-1638 1639 0
-1857 1860 0
-2120 2124 0
-195 -41 0
-405 11 407 0
-648 657 0
-1436 -96 0
-98 1469 0
-448 453 0
-4 350 0
-603 170 0
-613 614 0
-1697 277 0
-1569 -213 1570 0
-315 -101 0
-2012 -144 0
-2162 2163 0
-68 1088 0
-534 535 0
-1785 128 1787 0
-2124 -251 2125 0
-652 659 0
-305 -51 0
43 775 0
-2167 2170 0
-554 556 0
104 1545 0
-1169 225 1170 0
-1966 140 1968 0
-291 -117 0
-1141 198 1143 0
-422 303 0
-1220 1226 0
-301 0
154 2076 0
-569 239 570 0
-127 1797 0
-277 -97 0
-492 -22 0
-883 -54 885 0
-2030 2031 0
-1262 1265 0
-17 473 0
-300 1725 0
-1447 1448 0
-1093 -295 1094 0
-280 279 0
-520 181 0
-630 231 631 0
-1376 -299 1377 0
-1290 -84 1291 0
-1606 -266 0
-1630 112 1632 0
-1766 -218 0
-122 1768 0
-1122 173 1123 0
-1988 -250 1990 0
-2131 271 2133 0
-2159 165 2161 0
-500 504 0
-1137 74 1139 0
-1403 94 1405 0
-1986 1993 0
-1772 1773 0
-1651 1654 0
-63 1036 0
-2076 281 2077 0
-633 -35 635 0
57 952 0
18 466 0
-1004 1007 0
-1056 269 1058 0
-1676 -114 1678 0
-1189 1190 0
-1997 143 1999 0
-22 21 0
-2155 2157 0
-1059 270 1061 0
-684 688 0
175 1618 0
-1623 -175 1625 0
-1675 250 0
-614 -34 0
58 953 0
-1976 1979 0
-2041 150 2043 0
-86 85 0
-207 -25 0
-1956 1957 0
-1028 64 1030 0
-262 1320 0
-51 866 0
-940 -58 942 0
-547 550 0
-1451 1455 0
72 1116 0
-1743 120 1745 0
-206 205 0
-348 350 0
-6 379 0
-159 2123 0
-1654 1657 0
-336 2 338 0
-45 796 0
-1880 237 1881 0
-618 35 620 0
-1839 1840 0
-576 -30 578 0
-1149 -74 1150 0
-1051 1052 0
-1314 1316 0
-410 411 0
-930 933 0
-1491 309 1492 0
-535 27 537 0
-650 658 0
-1321 -264 0
-1177 1178 0
-1697 1700 0
-1876 237 0
-1882 1883 0
-1892 1895 0
-594 595 0
-1197 1199 0
-2163 313 2165 0
-1543 -192 0
-1243 -80 0
-415 417 0
-1599 -236 0
-1948 217 1950 0
-132 131 0
-287 1240 0
-2022 2025 0
-21 493 0
-651 38 653 0
-2065 -152 0
-301 2016 0
-2171 -313 0
-1560 1561 0
-3 361 0
-798 801 0
-1260 1264 0
-2023 330 2024 0
-1952 219 0
-832 50 834 0
-336 337 0
-862 322 864 0
-528 -181 530 0
-112 1622 0
-1244 1245 0
-1547 106 1549 0
-2090 2091 0
-739 743 0
-1773 -268 0
-1259 -187 1261 0
-1484 102 1486 0
-1302 1303 0
-247 -107 0
-555 -223 0
-2157 -294 0
-857 -296 0
-520 521 0
-2109 2114 0
-752 224 754 0
-128 1799 0
-28 574 0
-1465 -98 1466 0
-986 987 0
-1506 1509 0
-1592 -108 1593 0
-1704 278 1705 0
277 1704 0
-162 2151 0
-740 -184 0
-1064 1067 0
-339 4 341 0
-1454 246 1455 0
-1612 1613 0
-1952 1953 0
-906 198 0
-963 255 964 0
-1190 1193 0
-1811 1812 0
-2074 2076 0
-2029 -330 2031 0
-360 222 0
-446 -196 0
-665 669 0
-984 61 986 0
43 755 0
-59 973 0
-83 1290 0
-266 265 0
-2136 2137 0
-1162 225 1164 0
-173 1396 0
-1495 1496 0
-113 1676 0
-1232 -80 0
-1354 1355 0
-1694 1695 0
-1233 1236 0
-1644 204 0
-1780 -294 0
-748 756 0
-1957 1959 0
-46 799 0
-76 1185 0
134 1898 0
-2121 2122 0
-1508 -311 1509 0
-2019 2020 0
-1212 -246 0
-1082 296 1084 0
-2020 2024 0
-263 -97 0
-810 259 812 0
-955 60 957 0
-2004 2005 0
-1300 85 1302 0
-200 0
-1236 1239 0
-654 254 656 0
-807 47 809 0
-780 241 782 0
-2062 2063 0
-1216 80 1218 0
-318 317 0
-765 -223 0
-1928 319 1929 0
-456 -16 458 0
-1683 1687 0
26 535 0
-998 1003 0
-22 495 0
118 1701 0
-978 981 0
-1605 1606 0
-731 184 0
-958 959 0
-1460 1466 0
-761 -43 763 0
-411 274 0
-1163 1164 0
-1022 1023 0
-1282 -82 1284 0
-1097 -297 1098 0
-1930 1931 0
-735 186 0
-778 46 780 0
-501 502 0
-1453 245 1454 0
-1104 1106 0
-1252 188 0
-1367 1370 0
-968 -59 970 0
-1488 1489 0
-180 179 0
143 2000 0
81 1266 0
-1601 -109 0
-60 998 0
-1042 -187 1043 0
-1608 1609 0
-521 523 0
129 1837 0
-2031 -331 0
-1813 1814 0
-1600 -108 0
-1845 204 0
-108 1601 0
-966 258 0
-384 385 0
-481 20 483 0
-944 -210 946 0
-1167 1171 0
-904 196 905 0
-1230 1231 0
-1256 190 0
-1423 94 1425 0
-661 256 0
-846 848 0
-291 1479 0
-1089 1090 0
139 1966 0
-1563 -106 1565 0
-1204 -78 1206 0
-2079 -153 2081 0
-415 -12 0
-1249 1254 0
-1841 132 1843 0
-23 512 0
-1157 74 1159 0
-612 -32 0
-987 994 0
-1677 -115 1679 0
140 1967 0
-2117 2118 0
-106 105 0
-414 -11 0
-2060 257 0
-563 239 565 0
-605 -167 607 0
-1433 1438 0
-1797 1799 0
-2137 2139 0
-1598 -235 1599 0
-991 996 0
-451 452 0
-2133 272 0
-987 285 989 0
-1475 -100 0
-653 253 655 0
40 689 0
-2044 237 0
-1976 250 1977 0
-2039 149 2041 0
-867 -321 869 0
-2064 2065 0
-1077 1078 0
-500 24 502 0
98 1453 0
-738 -183 740 0
-1350 -275 1351 0
-2063 2066 0
-1741 -193 1742 0
-32 31 0
-1792 314 0
-293 -153 0
-1601 1602 0
-960 961 0
-820 -48 0
-1020 -62 1022 0
-41 736 0
-1109 -323 1111 0
-819 820 0
-925 58 927 0
-1159 1160 0
-1763 -216 1764 0
-1018 1019 0
-1762 -216 0
-281 -143 0
-1785 1786 0
-1384 174 1386 0
-231 -57 0
-454 209 455 0
-1181 -76 1182 0
-1833 -178 1834 0
-53 883 0
-581 584 0
-9 401 0
-104 1561 0
-440 443 0
-956 60 958 0
-240 239 0
-829 48 831 0
-2110 2111 0
-504 283 505 0
-1740 -193 0
153 0
-1032 186 1034 0
-1328 1329 0
-1793 -126 1795 0
-74 1174 0
-493 -22 494 0
-650 38 652 0
-765 768 0
-745 746 0
-1085 1086 0
-1505 -310 1506 0
-600 168 602 0
-946 -211 0
-1852 1853 0
-1211 1212 0
-1820 -330 0
-1347 1351 0
-1964 -219 1965 0
-1552 1556 0
-1852 -130 1854 0
-662 -36 664 0
-945 -210 0
-10 413 0
-1837 1838 0
-487 488 0
-1152 1154 0
-166 165 0
-299 -99 0
-768 771 0
-1184 -227 0
-1577 107 1579 0
-2033 -331 2034 0
-2036 2037 0
-1778 -292 0
-517 -322 0
-1415 1417 0
-430 -168 0
-855 -52 0
-257 -97 0
-348 -4 349 0
-43 766 0
-1539 -190 0
-370 371 0
-1595 -234 0
-723 -305 0
-1195 1197 0
-516 -321 0
-1643 203 1644 0
-1823 177 1825 0
9 404 0
-854 -51 0
-1137 1138 0
-1778 1779 0
-1273 1277 0
-1536 1541 0
-354 5 356 0
-695 696 0
-66 1047 0
-722 -304 0
23 24 321 322 0
-463 -209 464 0
-249 -121 0
-672 -254 673 0
-1257 1258 0
-55 913 0
-1909 -134 1911 0
-1942 138 1944 0
-2143 163 2145 0
33 617 0
-154 153 0
-1257 -82 1259 0
-1540 1543 0
-267 -133 0
-132 1861 0
-624 230 626 0
-1079 70 1081 0
91 1381 0
-1377 -300 0
34 618 0
-1081 295 1083 0
-999 1000 0
-1429 96 1430 0
-1845 1846 0
-4 362 0
-820 822 0
-1632 113 1634 0
-1063 1064 0
-621 622 0
-1324 1325 0
-1466 1470 0
-2135 -161 2137 0
102 1511 0
-1922 317 1924 0
-2073 154 0
-1222 289 0
-80 79 0
-1010 -287 1011 0
-1649 1650 0
-274 851 0
-1825 178 1827 0
-1912 1914 0
-805 806 0
-234 1598 0
-964 256 965 0
-299 -109 0
-1713 1714 0
-1874 236 1876 0
-695 -39 697 0
-81 1282 0
-900 196 0
-1485 1492 0
-730 184 732 0
-1816 -328 0
-264 263 0
127 1805 0
-1407 200 1409 0
-328 1819 0
-315 1609 0
-483 484 0
-257 -107 0
39 709 0
-149 2050 0
-2096 2098 0
-1267 83 1269 0
-2038 2039 0
-1913 -136 1914 0
-620 36 622 0
-777 45 779 0
-1758 -122 0
-1250 1251 0
-1513 1515 0
128 1806 0
-1129 1132 0
-2128 161 2130 0
-1810 329 1812 0
-1071 1073 0
-1696 118 0
-2017 2018 0
-1752 217 1754 0
-6 5 0
-341 207 343 0
-150 2063 0
244 1199 0
-1133 1134 0
-672 675 0
-1045 -65 0
-1275 1279 0
-1023 -306 0
-1506 -311 0
-187 -71 0
-111 1645 0
-1618 176 1619 0
-1958 1960 0
-712 304 714 0
-1074 -272 0
-1301 86 1303 0
-2077 282 0
-2168 -165 0
-2063 -151 2065 0
-1375 1377 0
-279 1917 0
-748 44 750 0
-1552 106 1553 0
-1898 135 1900 0
-398 -10 400 0
-573 -28 575 0
-99 1475 0
-214 213 0
-633 638 0
-768 -224 0
-2084 2085 0
-1435 -96 1437 0
-655 656 0
-943 -209 945 0
-62 1021 0
-1497 -101 1499 0
-1764 1766 0
-860 861 0
-803 -243 804 0
-476 478 0
-895 903 0
-355 359 0
-1059 1060 0
-427 -304 0
-1351 -276 1352 0
-907 -54 909 0
-2038 148 2040 0
-2130 162 2132 0
-1341 1347 0
-1366 -88 1368 0
-1044 1045 0
-1998 143 0
-80 1237 0
-397 398 0
-1243 1244 0
-1814 -327 1816 0
-602 603 0
-790 -44 792 0
-521 182 0
-800 -242 801 0
-1316 -261 1317 0
-140 139 0
-123 1769 0
-2010 2011 0
-1889 1892 0
-722 723 0
-1749 215 1751 0
147 2038 0
41 745 0
-1427 1428 0
-478 -229 0
-1040 -186 1041 0
-1126 1127 0
-64 1037 0
-1266 82 1268 0
-1005 1008 0
-1168 227 0
-884 889 0
-1414 -94 0
-344 345 0
-1225 288 1226 0
-324 323 0
-1446 1451 0
-1262 -189 0
-1794 -127 1796 0
-1781 126 1783 0
-564 239 566 0
-1111 1112 0
-1413 -93 0
-1310 1311 0
-505 284 0
-235 -121 0
-528 529 0
-26 547 0
-1834 1836 0
-1073 -271 1074 0
-1436 1437 0
-129 1852 0
-66 65 0
-513 -283 514 0
-668 671 0
-766 -44 767 0
-2001 267 0
-895 56 897 0
-309 1247 0
-604 -32 606 0
-853 854 0
101 1490 0
27 558 0
-186 185 0
-1063 -66 1065 0
-1445 98 1447 0
-1092 -295 0
-38 694 0
-1965 -220 0
-1071 -270 1072 0
-1191 77 0
-1698 1701 0
-1678 1679 0
-1244 -307 0
-88 1367 0
-390 391 0
-1432 -94 1434 0
-1576 106 1578 0
-1686 -248 1687 0
-2144 2145 0
-793 797 0
-1157 1158 0
-1420 1422 0
-406 11 408 0
-856 857 0
-1760 1762 0
-1786 311 1788 0
-705 -283 706 0
-1891 1894 0
-2150 -162 2152 0
-545 224 0
-1498 1502 0
-450 18 452 0
-54 53 0
-1339 1346 0
-1866 -206 0
-955 963 0
-1482 1483 0
-758 225 759 0
-1234 -80 1235 0
-101 1518 0
-2081 -154 2083 0
-275 -59 0
-38 671 0
-1182 1186 0
-1296 -213 1297 0
-1886 1887 0
-238 237 0
-646 -232 0
-949 -210 950 0
-838 275 840 0
-1304 261 1306 0
-1764 -217 0
-1603 -263 0
-1991 -142 1992 0
2 334 0
-689 283 690 0
-2070 2071 0
-1649 -114 0
-1444 1450 0
-1254 188 1255 0
-391 259 0
-629 230 630 0
-1399 92 1401 0
54 875 0
-1140 198 1142 0
-1620 178 0
-1428 1431 0
-22 507 0
-559 568 0
-1107 1108 0
-1370 1372 0
-718 -40 720 0
-186 1042 0
-1815 -327 0
-193 -129 0
-461 -209 0
209 934 0
-1039 -186 0
-1688 -247 1689 0
-1448 1452 0
-687 284 688 0
-375 239 0
-71 1145 0
-311 1801 0
-1733 1734 0
156 2090 0
-658 253 659 0
-561 30 563 0
-1057 269 1059 0
-114 1677 0
-1119 172 0
-1687 -249 0
-273 -37 0
-2086 154 0
-188 187 0
104 1527 0
-1337 278 0
-1553 1557 0
-1616 1617 0
146 2018 0
-674 -254 675 0
319 0
-941 -58 943 0
-231 1048 0
-1475 1476 0
-1091 1093 0
-1560 -104 1562 0
-1201 -76 1203 0
-970 974 0
-1738 1740 0
-693 694 0
-556 -223 557 0
-1197 244 1198 0
-1896 -238 0
-912 915 0
-566 240 0
-791 796 0
-892 893 0
-771 774 0
-1908 282 0
-245 -83 0
-1488 310 0
-684 284 0
-619 35 621 0
87 1330 0
-1416 1418 0
61 1012 0
-1358 1359 0
-1863 -205 0
-355 6 357 0
-1237 1240 0
-1597 -235 0
-47 841 0
-1116 1121 0
-1217 1218 0
-351 -208 0
-712 716 0
-1969 142 1971 0
-435 436 0
-536 27 538 0
-775 776 0
-759 226 0
-554 -222 555 0
-631 232 0
62 1013 0
-114 113 0
-634 635 0
-1427 96 0
-95 1438 0
-1359 297 1361 0
-1863 1866 0
17 453 0
-1883 1888 0
-643 -231 0
-39 701 0
-33 632 0
-1771 -266 0
-136 1931 0
159 2114 0
-1401 1402 0
-760 761 0
-590 269 0
-8 396 0
-574 -29 576 0
-732 185 0
-1449 98 1450 0
-298 297 0
-1625 -176 0
103 1544 0
-1867 1868 0
-180 -179 -156 -155 0
-719 -303 721 0
-1470 -246 1471 0
-1320 -263 1321 0
-1284 1285 0
79 1223 0
-1712 -277 1714 0
-2123 -160 2124 0
-1143 1144 0
-897 195 899 0
-1205 -78 1207 0
-1628 -177 1629 0
-2071 2074 0
75 1189 0
-287 -67 0
-1687 1691 0
-1355 89 1357 0
-40 39 0
-103 1560 0
-443 -16 444 0
-195 919 0
-1162 1167 0
-1609 1610 0
-1787 311 1789 0
-888 -171 0
-443 445 0
-160 159 0
-29 579 0
-2017 146 2019 0
-380 -7 382 0
-784 789 0
-863 323 865 0
-224 223 0
-1793 1794 0
-1746 122 1748 0
-115 1707 0
-826 828 0
-1464 -246 0
-1818 -329 0
-968 973 0
165 0
-1997 2000 0
-1876 1881 0
-1842 203 1844 0
-1229 1234 0
-1593 1595 0
-1535 1536 0
-894 895 0
-271 -109 0
-1151 1153 0
-1394 1395 0
-389 393 0
56 923 0
149 2054 0
-972 975 0
-526 -26 528 0
-1673 248 1674 0
-1918 1920 0
-1944 139 1946 0
-899 196 901 0
-2158 164 2160 0
-509 513 0
-2045 238 0
-682 283 684 0
-29 592 0
-431 432 0
-1776 -126 0
-911 -56 0
-123 0
-553 555 0
-485 22 487 0
-1025 -307 0
-1571 -215 0
117 1698 0
-1700 278 0
-539 221 541 0
-1068 -269 0
-1801 1803 0
-1941 -194 0
-1083 296 1085 0
-319 -145 0
-1264 -189 1265 0
-2044 2045 0
-1602 1603 0
-615 616 0
-269 -59 0
-78 1229 0
-294 293 0
126 1782 0
-1433 -95 1435 0
-1345 -276 0
119 1743 0
-1922 1927 0
-1983 -141 1985 0
-1081 1082 0
-1881 238 0
-576 580 0
-1375 -299 0
22 498 0
-698 703 0
-1155 -199 1156 0
164 2159 0
-381 -8 383 0
-1354 88 1356 0
-35 638 0
-1160 1166 0
-1344 1345 0
-133 1909 0
-36 35 0
-2169 2171 0
-1124 1125 0
-259 -37 0
-1003 1006 0
-1194 243 0
-1621 -112 1623 0
-1970 1971 0
-1222 1227 0
-1465 1469 0
-1164 1168 0
-685 40 686 0
-220 219 0
-1588 -106 1590 0
-1795 -127 0
-1529 190 1531 0
-1265 -190 0
-779 46 781 0
61 992 0
-1894 -236 1895 0
-866 867 0
-836 274 838 0
-1348 1352 0
-741 -185 0
-822 -259 0
-424 425 0
-1176 -76 1178 0
-1595 1597 0
-2095 2097 0
-1191 1192 0
-1970 142 0
-1736 -191 1738 0
-686 690 0
-628 229 629 0
-565 571 0
31 596 0
-749 750 0
-1672 247 1673 0
-1931 -317 1933 0
-2011 -268 0
-88 87 0
-507 512 0
-1564 -106 1566 0
-2074 154 2075 0
-1716 1721 0
-1117 171 1119 0
-1378 -90 0
-1395 1398 0
-342 207 0
39 685 0
-24 516 0
-2105 -219 2107 0
-149 2062 0
-549 551 0
-1889 -235 1890 0
-272 271 0
133 1897 0
-1841 1842 0
-491 492 0
-159 2134 0
-117 1722 0
-12 0
-675 -255 676 0
-1316 1318 0
-1899 1900 0
-1677 1684 0
-988 285 990 0
-1534 192 0
-1117 1118 0
-2104 2105 0
-36 663 0
-1008 -287 0
-2040 149 2042 0
-574 579 0
-1173 -74 1175 0
-14 13 0
-2108 158 2110 0
-1726 -302 0
-417 419 0
-1924 1928 0
-134 133 0
-126 1794 0
-105 1588 0
-879 882 0
-979 -256 980 0
-1657 -202 1658 0
-395 -8 397 0
-198 197 0
-717 306 0
-1767 1768 0
-447 16 449 0
-960 256 0
-1271 211 1273 0
-1966 1967 0
-338 339 0
63 1028 0
-2029 2033 0
-1926 319 0
-177 1833 0
-2092 2093 0
-1971 1974 0
-1167 226 1168 0
-1342 -88 1344 0
-1830 1833 0
-189 -91 0
-835 273 837 0
-2150 2151 0
-761 766 0
-1368 1369 0
-1935 -319 0
-2006 -143 2008 0
-139 1981 0
-901 197 0
-926 927 0
-452 209 0
-1698 118 1699 0
-183 742 0
-57 967 0
-1544 104 1546 0
-1327 275 1329 0
-1934 -318 0
-844 -50 0
-1329 1333 0
99 1480 0
-163 2154 0
-2110 159 2112 0
-362 367 0
100 1481 0
-1899 135 1901 0
-1682 -247 0
-1519 -325 1521 0
-567 572 0
-1309 264 0
-1576 1577 0
-267 1773 0
-362 -5 364 0
-613 -33 0
-782 242 784 0
-876 169 878 0
-1192 1194 0
-268 267 0
-175 1627 0
-667 670 0
-139 1958 0
-486 253 488 0
-1430 227 1431 0
-609 611 0
-1469 -245 1470 0
-332 331 0
-112 1646 0
-1959 1961 0
-1188 -228 0
-1818 1820 0
-1015 306 1017 0
58 931 0
-2009 -267 2011 0
-1551 214 0
-764 -44 0
-750 757 0
-1699 277 1700 0
-1087 -68 1089 0
-1513 326 0
-10 9 0
-1774 -124 0
-932 210 933 0
-1870 134 1872 0
-1535 -104 1537 0
-2087 319 0
-977 980 0
-74 73 0
-1944 1945 0
-1813 -128 1815 0
-1178 -225 1180 0
-69 1091 0
-552 -221 553 0
-1344 -275 0
-372 7 0
-754 759 0
-477 479 0
-1493 311 1494 0
-194 193 0
-2144 163 2146 0
-1842 1849 0
121 122 123 124 265 266 267 268 0
-1501 1504 0
-1275 211 1276 0
-1827 1828 0
-1647 -113 1649 0
-918 921 0
-1181 1185 0
-1425 95 1427 0
-1665 247 1667 0
-1732 193 1734 0
-2002 267 2003 0
-1846 1851 0
-2098 219 2099 0
-32 605 0
-1572 -213 1573 0
-524 183 525 0
-923 928 0
-68 0
-891 -172 0
-1364 1365 0
-350 -207 351 0
-62 61 0
-461 464 0
-489 -20 491 0
-257 -115 0
-801 804 0
133 1877 0
-2151 2154 0
-1329 276 0
-178 1835 0
-120 119 0
-1391 -173 1393 0
-1431 228 0
-1923 317 1925 0
-927 930 0
-68 1069 0
-1548 1549 0
-907 908 0
165 2174 0
-271 -77 0
-523 525 0
-801 -243 0
-246 245 0
-1753 1754 0
-1369 1371 0
-465 466 0
38 678 0
-992 62 993 0
-219 -147 0
-1893 1896 0
166 2175 0
-1806 327 1808 0
-1873 1874 0
-1193 78 1194 0
-1232 1233 0
96 1442 0
-848 850 0
-597 167 599 0
-2054 150 2056 0
-2078 2079 0
-669 672 0
-649 650 0
-438 196 0
-846 -273 0
-164 2156 0
-679 39 681 0
-508 509 0
-106 1572 0
-511 -283 0
-724 -304 725 0
-167 430 0
-1280 213 1281 0
-108 107 0
-1220 288 1222 0
-1001 -62 0
-833 834 0
-989 995 0
-140 1960 0
-1331 275 1332 0
-2022 331 0
-973 976 0
-1600 1601 0
-1648 -114 1650 0
115 1692 0
-420 12 422 0
-1417 -199 1418 0
-1940 1941 0
-156 2101 0
-12 425 0
-1435 1439 0
-1450 245 1451 0
-1037 1040 0
-1125 -171 1127 0
-512 -24 513 0
-1287 -211 1289 0
-1507 -310 1508 0
-494 -253 0
-1925 1926 0
-575 576 0
-369 -222 0
-1821 130 1823 0
-749 44 751 0
331 0
-254 253 0
-57 947 0
-1060 271 1062 0
-166 2172 0
-998 -61 1000 0
-1342 1343 0
-1490 102 1491 0
-1682 1683 0
-1727 120 1729 0
-1724 -300 0
-900 901 0
-1884 -133 1886 0
-788 243 789 0
-849 -274 850 0
-7 395 0
-638 -36 639 0
-458 459 0
-2114 160 2115 0
-1381 92 1383 0
-636 -36 0
23 503 0
-1723 -299 0
-1587 236 0
-551 -221 0
-816 262 0
-211 -73 0
-1050 -234 0
-1787 1788 0
-2050 2052 0
-1581 233 1583 0
17 465 0
-798 -242 0
-578 -239 0
159 2126 0
-1550 1551 0
-1049 -233 0
-1686 1690 0
-1579 108 1581 0
-1409 1410 0
-242 241 0
-1025 1027 0
-205 -137 0
-1421 -201 1422 0
-641 644 0
-1749 1750 0
-967 968 0
-1104 325 0
-1667 248 0
-442 444 0
-72 1146 0
-1671 1675 0
-1455 247 1456 0
-1569 1573 0
-1734 194 0
-1314 -86 1315 0
-269 -37 0
-1854 1855 0
-1297 -214 0
-709 710 0
-2024 331 2025 0
-1554 1558 0
-1915 -279 1916 0
-41 760 0
-1537 -189 1539 0
-1476 1477 0
-371 7 373 0
-489 490 0
-728 733 0
-232 1049 0
-1092 1094 0
-168 167 0
-2000 2002 0
-1645 -112 1647 0
-1286 -84 1288 0
45 805 0
-896 56 898 0
-1992 -249 1993 0
-1417 1419 0
-189 1541 0
-53 907 0
-1660 1661 0
-372 373 0
-82 1258 0
-2104 -158 2106 0
-48 842 0
-384 -239 0
-1921 1922 0
-2169 -166 0
-607 -168 0
-71 1124 0
37 657 0
-2096 158 2097 0
-474 -19 476 0
-1985 1986 0
-1338 1339 0
-697 698 0
-1100 323 1102 0
-2151 -163 2153 0
-271 -97 0
-34 633 0
-1356 89 1358 0
-706 -284 707 0
-436 195 438 0
-94 93 0
-1186 -226 1187 0
-1668 116 1669 0
-2109 159 2111 0
-1522 1523 0
-1703 279 0
-2058 152 2060 0
-441 -15 0
-1100 1103 0
-1727 1728 0
-2072 153 0
-1221 288 0
-439 440 0
111 1630 0
-344 -2 346 0
-329 2032 0
-1933 -318 1935 0
59 982 0
-84 1311 0
-396 401 0
-185 -53 0
-1269 84 1271 0
-423 304 0
-480 -230 0
-701 705 0
-1065 1066 0
-1405 1406 0
112 1631 0
-842 -49 844 0
-269 -47 0
-623 624 0
-969 -59 971 0
-502 505 0
-1390 -92 1392 0
-216 1765 0
-43 790 0
-1250 187 1252 0
-1667 1671 0
-1390 1391 0
-96 1458 0
-1452 247 0
-2004 -142 2006 0
-18 474 0
-807 808 0
-1147 1148 0
-1289 1293 0
-365 366 0
-55 937 0
-1840 132 1842 0
-2167 -165 2169 0
-1338 -86 1340 0
-231 -43 0
-1652 1655 0
-317 1611 0
-2138 -162 2139 0
-1594 1596 0
-870 -322 871 0
-1134 73 1136 0
-1094 -296 0
-562 30 564 0
120 1728 0
-271 -143 0
-228 227 0
-1457 1458 0
-1977 1980 0
-183 -31 0
-1871 134 1873 0
-701 -40 702 0
-874 875 0
331 2176 0
-470 229 472 0
-15 456 0
-869 -322 0
-1246 -309 0
-725 -305 726 0
-349 -207 0
-1981 1982 0
-1860 1863 0
-1937 -319 1938 0
-217 -131 0
-345 -3 347 0
-131 1858 0
-1245 -308 0
10 405 0
78 1214 0
-1556 213 1557 0
-1825 1826 0
-475 476 0
-1524 1525 0
-580 -239 581 0
-1292 -212 1293 0
-1383 1384 0
-147 2035 0
-2088 320 0
-736 737 0
-265 0
-1751 216 1753 0
-1582 1583 0
-941 942 0
-1641 201 1642 0
-1692 116 1694 0
-257 -83 0
-962 60 963 0
-416 418 0
-138 1940 0
-1322 86 1324 0
-1353 -278 0
-1907 1908 0
-2170 2172 0
-915 -196 0
-1665 1670 0
-1605 -265 0
-897 904 0
-357 360 0
-776 785 0
-649 37 651 0
-1223 80 1224 0
-683 684 0
-368 -221 369 0
-472 230 0
-1126 -171 1128 0
-1953 220 0
160 2127 0
-542 543 0
-1245 1246 0
-1041 -187 0
1 333 0
-1990 1995 0
-1066 1068 0
-804 -244 0
-227 -83 0
-142 141 0
-662 663 0
-787 242 788 0
-1047 -231 0
-859 321 861 0
-25 546 0
53 874 0
-1833 1835 0
-1868 1877 0
-1775 1776 0
-944 950 0
-1007 1010 0
-1634 1635 0
-346 347 0
-326 325 0
-1919 -281 1920 0
-687 691 0
-404 405 0
-514 -284 0
-1269 1275 0
-37 693 0
-1872 1879 0
-133 1888 0
-1312 1313 0
-1701 277 1702 0
-2165 314 0
-1524 -327 0
-1578 107 1580 0
-2158 2159 0
-530 531 0
-1466 -245 1467 0
-109 1607 0
-729 730 0
-1468 -247 0
-1757 -121 0
-68 67 0
-376 239 377 0
103 1526 0
-550 552 0
-1843 203 1845 0
145 2017 0
-1759 1761 0
-544 223 0
-1317 1319 0
-933 936 0
-163 2166 0
-612 613 0
-1325 88 1327 0
-726 -306 0
-471 472 0
-1022 -305 0
-1700 1703 0
-1812 330 0
-1821 1822 0
-623 229 625 0
-2026 2027 0
-1458 1465 0
-1379 1380 0
-1235 -287 1236 0
-370 6 372 0
-508 -23 510 0
-1144 200 0
-645 -231 646 0
-1750 216 1752 0
-1443 1444 0
-456 457 0
-116 1688 0
-2146 2147 0
-540 221 542 0
-890 -171 891 0
-997 -60 999 0
-1373 -298 0
-1462 1467 0
-1213 78 1215 0
-1768 1769 0
-781 782 0
-298 0
-696 -40 698 0
-538 539 0
-774 -226 0
-1187 -227 1188 0
-1626 -177 0
-21 506 0
-581 -240 0
-1646 1651 0
-1626 1629 0
-195 -25 0
-299 1724 0
-1747 1748 0
-664 665 0
-1903 279 1905 0
109 110 315 316 317 318 0
-394 260 0
171 1121 0
-942 949 0
-202 201 0
-2072 2073 0
-140 1982 0
-296 1097 0
-1567 1571 0
135 1921 0
-1630 1631 0
-1826 179 1828 0
-1267 1274 0
-908 -55 910 0
-1199 245 1200 0
-946 951 0
-1047 1048 0
-406 407 0
-885 -169 887 0
136 1922 0
-207 616 0
-776 45 778 0
-1450 1454 0
-1173 1174 0
-1715 -278 0
-1032 1033 0
-837 274 839 0
-1486 309 1488 0
-657 38 658 0
-127 1813 0
-590 591 0
-847 849 0
-1712 1719 0
82 1249 0
-1566 -213 0
-449 450 0
-233 -75 0
-1856 -132 0
-466 19 468 0
-20 0
-128 127 0
-1998 1999 0
-437 195 0
-812 260 814 0
-1027 -308 0
-1070 -270 0
-297 1374 0
55 922 0
-1498 -102 1500 0
-164 0
-809 48 811 0
-312 311 0
-833 50 835 0
-914 917 0
-1249 187 1251 0
-1710 -118 1712 0
-135 1930 0
-1639 1644 0
-1099 1100 0
-595 -270 0
-1548 106 1550 0
-462 -18 463 0
-1133 72 1135 0
-1298 1299 0
-11 424 0
-25 526 0
-516 517 0
-1219 1220 0
-225 -57 0
-1408 201 1410 0
-1105 325 1106 0
-1357 90 1359 0
-1594 -233 1595 0
-616 -208 0
-777 778 0
-1040 1042 0
-1623 1624 0
-636 637 0
115 1668 0
-1502 1505 0
-1118 1122 0
-841 842 0
-65 1063 0
-122 1761 0
-2129 162 2131 0
-174 173 0
-1658 -203 1659 0
-1885 1889 0
-1591 -108 0
-1948 1949 0
-1006 -285 1007 0
-618 627 0
-719 724 0
-1807 1808 0
-468 20 470 0
-259 825 0
-982 60 984 0
-1565 1570 0
11 420 0
-378 379 0
-1460 -98 1462 0
-1586 235 0
-27 573 0
-1286 1287 0
-2132 2133 0
12 421 0
-2051 -237 0
-1229 -79 1231 0
-723 726 0
-824 -260 0
-582 585 0
-42 41 0
-767 -223 768 0
-145 2014 0
87 1354 0
-1955 -139 1957 0
-2073 2075 0
-1946 140 1948 0
-1028 1029 0
-1710 1718 0
-874 54 876 0
-1978 250 1979 0
-887 888 0
-1150 1152 0
-2160 165 2162 0
-849 851 0
-1440 -228 0
-1030 185 1032 0
-1638 202 0
-2153 -164 0
-1290 1294 0
-432 15 434 0
-417 -273 0
-27 550 0
-1477 -290 0
-2058 2059 0
-2152 -163 0
-1444 98 1446 0
-303 -23 0
-308 307 0
-1217 80 1219 0
-1537 1538 0
-1096 -297 0
-1800 1802 0
-1480 100 1482 0
-213 -93 0
-627 36 628 0
5 358 0
-1174 1181 0
-1422 -202 0
-1999 2001 0
-1467 -246 1468 0
-641 -229 642 0
-974 977 0
-2026 -146 2028 0
-954 955 0
-77 1228 0
-391 394 0
-871 -323 0
-819 -47 0
-1036 -64 1038 0
-1178 1183 0
-1226 289 1227 0
-1248 82 1250 0
-497 498 0
-837 838 0
-1554 214 1555 0
-1066 -68 0
-176 175 0
-1609 -316 0
-2046 2047 0
-2106 -219 0
-1069 -269 1070 0
-1604 1605 0
132 1868 0
-1801 -312 1802 0
-1463 1464 0
-263 1604 0
-410 273 0
-971 -60 0
-1065 -67 0
-2066 2068 0
-681 682 0
-1728 191 1730 0
-380 381 0
-1457 -96 1459 0
-221 554 0
-233 -95 0
-721 725 0
-2051 2053 0
-1864 -204 1865 0
-1541 -190 1542 0
-1545 105 1547 0
-1305 262 1307 0
-271 -85 0
-1206 -243 1208 0
-1205 1206 0
-564 565 0
-821 823 0
-2171 2173 0
-700 704 0
-1678 -115 1680 0
-690 284 691 0
-642 645 0
