p cnf 2006 3825
-102 101 0
172 978 0
-217 -109 0
-1409 1412 0
-416 319 0
-633 -170 635 0
-1497 270 1498 0
-947 948 0
173 979 0
-197 -15 0
-604 -290 0
-826 829 0
-286 285 0
-921 -226 0
27 516 0
-1104 -82 0
-868 869 0
-1294 203 0
-603 -289 0
-1272 1273 0
-631 632 0
-787 793 0
-1053 -256 1054 0
-1103 -81 0
-1131 1132 0
-305 -101 0
-490 491 0
-830 831 0
-1256 314 0
-446 448 0
-646 199 647 0
-590 -234 0
-28 27 0
165 1999 0
-1000 74 1002 0
-245 932 0
-77 1074 0
-1456 1457 0
-1273 174 1275 0
-815 816 0
56 780 0
-148 147 0
-1536 328 1538 0
-1980 1982 0
166 2000 0
-1505 -269 0
-1084 -282 1085 0
-877 203 0
-212 211 0
-439 -209 0
-935 936 0
-1077 1081 0
-1773 217 1774 0
-1781 1782 0
-1140 1141 0
-1339 1340 0
-352 353 0
-1992 -165 1994 0
-955 957 0
-141 1848 0
-135 1779 0
146 1878 0
-164 1981 0
-1441 -285 1442 0
179 0
-456 -233 458 0
-1217 1222 0
-1581 1583 0
-1159 1163 0
-435 440 0
-882 883 0
-191 -103 0
-922 -225 923 0
-77 1051 0
-1344 1346 0
-16 423 0
-250 1425 0
-622 169 624 0
48 673 0
-1002 1003 0
-634 -171 636 0
-1144 1148 0
109 1443 0
-217 -119 0
-861 862 0
-1727 1730 0
-1006 215 0
-439 442 0
123 1606 0
-83 1129 0
156 0
-1496 269 1497 0
-1545 -328 1547 0
-1314 -204 1315 0
-131 1726 0
-162 161 0
-1761 -194 1762 0
-1228 90 1230 0
-363 8 365 0
-568 183 569 0
-721 310 722 0
-744 745 0
-1527 1531 0
-1590 1591 0
-603 604 0
-282 281 0
-72 994 0
-265 599 0
-885 891 0
-125 1662 0
-1681 130 1683 0
-948 951 0
-1980 -279 0
-564 568 0
-928 929 0
-1979 -164 1980 0
-486 487 0
-1279 -94 1281 0
-132 0
-736 -213 0
-348 221 349 0
-345 346 0
10 394 0
-96 1316 0
-926 -227 927 0
-1453 1458 0
-24 23 0
-1986 166 1988 0
-889 893 0
-1773 1776 0
133 0
-428 18 430 0
-1715 1717 0
-679 -46 681 0
-150 149 0
-2005 -331 0
-796 -289 797 0
-648 201 0
-701 255 702 0
-107 1422 0
-1204 90 1205 0
-85 1181 0
-1362 300 0
-1578 1579 0
-1457 1460 0
-208 207 0
-1671 189 1673 0
-1437 1438 0
-508 27 510 0
-1142 86 1143 0
-1303 206 0
-1437 -283 0
-1316 -203 1317 0
-605 42 607 0
-412 413 0
-675 677 0
-1797 1805 0
-433 210 0
-1320 1321 0
-1583 1585 0
-1914 -150 1916 0
-217 -129 0
-1452 -110 1454 0
-1956 261 1957 0
63 908 0
-615 -319 0
-1499 272 0
-76 75 0
-311 -57 0
-596 597 0
-291 -79 0
-637 44 639 0
-317 -131 0
-174 -173 -172 -171 -70 -69 0
-1744 194 1745 0
-1946 1947 0
-930 -66 0
-1174 248 0
-1504 1505 0
-1708 -131 0
-1262 1267 0
-1363 1364 0
-1901 148 0
-236 1025 0
-1163 -228 1164 0
-260 259 0
145 1885 0
-1825 141 1827 0
-1688 1689 0
-1347 -278 1348 0
-1792 -219 1793 0
-98 1340 0
72 997 0
315 1658 0
-605 606 0
-42 603 0
-804 805 0
-1133 -188 0
-1336 279 1338 0
-160 1959 0
-562 567 0
-2 1 0
-303 827 0
-1571 1572 0
-584 585 0
-28 537 0
-553 -31 555 0
-1403 216 1405 0
-1523 300 0
-1132 -187 0
-109 1452 0
-1506 -114 1507 0
-668 47 670 0
55 800 0
-122 121 0
-988 989 0
-1910 152 1912 0
-1833 1837 0
-1489 114 1491 0
-1775 1778 0
-213 -61 0
-1755 1756 0
-960 311 962 0
-1703 273 1705 0
97 1327 0
-346 349 0
-61 890 0
-1850 -260 1851 0
-1360 299 0
-909 225 910 0
-1192 1195 0
-209 583 0
-1172 1173 0
-759 -54 760 0
-1340 -99 1342 0
-1915 -151 1917 0
-1093 82 1095 0
-1818 1821 0
-1807 243 1808 0
-530 533 0
-1380 104 1382 0
-1992 1995 0
-1795 1804 0
-1925 154 0
-507 516 0
-671 673 0
-970 -312 972 0
-1516 1521 0
-652 -44 654 0
-1438 1440 0
-1152 -85 1154 0
-281 -39 0
-1676 -189 0
-791 -290 0
-393 394 0
-899 63 901 0
-1743 193 1744 0
-875 879 0
-245 -37 0
-222 541 0
-1070 281 1071 0
-822 -303 823 0
-542 -224 0
-136 135 0
-168 -167 -2 -1 0
-968 -311 970 0
-1271 173 1273 0
-1564 1565 0
94 1271 0
-659 -200 661 0
-1423 1424 0
-256 255 0
-1165 -230 0
-398 400 0
-1444 205 1446 0
-320 319 0
-836 322 837 0
-902 903 0
-945 267 0
19 459 0
-572 -181 574 0
-1420 -106 0
-1605 257 0
-336 2 0
-1306 1307 0
-5 367 0
78 1039 0
-750 276 751 0
-1854 -261 1855 0
173 1276 0
-1689 1691 0
16 426 0
-1185 -88 0
-1044 -77 1046 0
133 1734 0
-1106 1108 0
-1067 282 0
-182 181 0
167 335 0
-976 171 0
-969 970 0
-664 -200 665 0
-144 1870 0
-1926 179 0
-816 -57 818 0
-944 267 946 0
93 1288 0
285 1638 0
-386 387 0
-805 812 0
-120 1589 0
-683 -48 685 0
-1294 1295 0
-1591 -122 1593 0
-734 -211 0
-1596 -230 1598 0
-1716 -273 1717 0
-1814 1817 0
-1011 -74 0
-477 -24 0
-1999 2000 0
-534 -199 535 0
-711 712 0
-50 49 0
-245 -47 0
-570 571 0
-647 200 648 0
-1477 -112 1478 0
-483 310 0
25 488 0
-35 586 0
-962 312 0
-1337 1338 0
-1556 1559 0
-1216 -90 1218 0
-680 -47 682 0
-1589 -121 1591 0
-1714 -272 1715 0
-1583 230 0
-1593 -229 1595 0
-234 233 0
-246 933 0
-1114 1117 0
-854 184 855 0
-453 454 0
-891 -201 892 0
73 74 75 76 235 236 237 238 0
-1662 1663 0
-856 186 0
-914 919 0
-1003 214 1005 0
-673 223 674 0
-1157 1161 0
-427 17 429 0
-613 -42 615 0
44 622 0
-1740 1743 0
12 410 0
-1815 -140 1816 0
-378 10 380 0
-1197 1204 0
-133 1749 0
-637 638 0
-762 -275 763 0
-1213 -89 1215 0
-316 315 0
-602 -42 0
-81 1121 0
-1404 1405 0
-1784 -217 1786 0
-96 95 0
-1189 -248 0
-163 1991 0
-333 2 0
-787 -56 789 0
-1233 291 1235 0
-906 226 0
-379 380 0
-521 -26 523 0
-1345 1347 0
-665 -201 666 0
-1608 1611 0
-1588 1589 0
2 337 0
-789 -289 791 0
-739 748 0
-840 845 0
-1633 126 0
-1928 1929 0
-739 53 741 0
-1547 -329 0
-1544 -327 1546 0
-391 -263 392 0
-846 -323 847 0
-742 54 744 0
3 338 0
-491 168 493 0
-563 564 0
-64 922 0
-1044 1051 0
-21 475 0
-1471 1472 0
-59 857 0
-1105 -82 1106 0
-1456 -206 0
-1029 1030 0
-1602 123 1604 0
325 1377 0
-524 528 0
-888 889 0
-1099 297 0
-1130 -185 0
-1721 330 1723 0
-1333 277 1335 0
-1326 -240 0
-1796 1797 0
-1412 1414 0
-630 -169 632 0
-255 -65 0
85 1166 0
-1338 280 0
-907 912 0
-367 368 0
-895 -202 896 0
-1982 -280 0
-46 45 0
-51 753 0
-1893 -146 1895 0
-1564 -176 0
-1169 1177 0
-110 109 0
60 849 0
-358 -222 0
-92 1246 0
101 1375 0
-1685 208 0
-430 433 0
-95 1320 0
-230 229 0
-1013 1015 0
-372 374 0
-892 896 0
-1450 207 1451 0
-1239 294 0
-771 777 0
-150 1915 0
-188 1394 0
-917 -64 0
178 0
-1517 1518 0
-1860 144 1862 0
-1479 1481 0
-1722 1723 0
-371 -8 372 0
-434 435 0
-697 699 0
-1433 285 0
-1033 255 0
-775 779 0
-1842 1843 0
-124 1643 0
-1620 1627 0
-513 519 0
-1186 -247 0
-1112 -298 0
-1493 270 0
-1906 1907 0
-1478 -239 0
-963 312 964 0
-376 381 0
-716 721 0
-1323 1324 0
-1410 -105 0
-156 155 0
-229 -95 0
-1031 78 1033 0
-411 14 0
-1938 -155 1940 0
-990 -71 0
155 0
-802 803 0
-1648 1649 0
-1490 269 1492 0
-380 383 0
-681 -47 683 0
-1143 1147 0
-76 1023 0
-1929 1932 0
-341 4 343 0
-1897 -148 1898 0
-305 1874 0
-1876 -308 0
-1783 -138 1785 0
-1127 1128 0
-1730 1732 0
-1973 1974 0
-573 -182 575 0
-685 686 0
286 1640 0
-1875 -307 0
-763 766 0
-16 435 0
-905 911 0
-443 18 445 0
-82 81 0
-1254 313 1256 0
-1750 1759 0
-1959 -161 1961 0
-1617 -123 1619 0
-1010 1011 0
-626 628 0
-1425 -251 0
-1167 1176 0
-1843 -142 1845 0
-427 428 0
-355 -221 0
-749 275 750 0
-1758 -195 0
-693 49 0
-458 -234 0
-890 -62 891 0
-1023 -235 0
-1428 283 1430 0
-1512 -270 1513 0
-1094 295 1096 0
-755 -53 757 0
-1919 -293 0
-1171 1178 0
-457 -233 0
-975 70 0
-1252 1253 0
-1726 -132 1728 0
-611 612 0
-923 -226 924 0
-1479 -239 1480 0
-290 289 0
-481 309 483 0
-293 -125 0
-1171 247 1173 0
-1492 270 1494 0
-1378 1379 0
-1718 1719 0
-1257 1260 0
-873 877 0
175 1557 0
-343 5 345 0
-489 494 0
-563 181 565 0
-902 64 904 0
-1509 -269 1510 0
-1750 -135 1752 0
-1285 -174 1286 0
-229 -105 0
-1549 -329 1550 0
-1994 -166 0
-1819 -242 1820 0
-136 1780 0
-1562 1563 0
-1902 1903 0
-1261 1262 0
-756 760 0
-1933 195 0
-1972 279 1974 0
-235 -63 0
-808 304 0
-1582 1584 0
-1851 -261 0
14 412 0
-557 560 0
-1117 324 1118 0
-537 538 0
-1887 1888 0
-1187 -88 1188 0
-1240 1241 0
152 1923 0
118 1552 0
1 0
-216 215 0
-1445 1446 0
-936 67 938 0
-319 617 0
-237 1324 0
-251 1426 0
-1937 -155 1939 0
-1304 1305 0
-1524 -114 1526 0
-600 -40 0
-1644 1645 0
-763 -276 764 0
-858 -183 860 0
-1007 216 0
-1913 294 0
61 874 0
-1042 258 0
-420 421 0
-1002 213 1004 0
-47 703 0
-1483 -241 1484 0
-283 -99 0
-982 983 0
-1245 1247 0
-1405 217 1407 0
-1965 -261 1966 0
26 507 0
-1828 1829 0
-1969 1970 0
-1973 279 0
-377 9 379 0
-1707 1710 0
-303 -41 0
-291 -67 0
158 0
-949 -67 0
-1081 -281 1082 0
-79 1101 0
-1186 1189 0
138 1773 0
-1244 -92 1245 0
-1371 1372 0
124 1609 0
-204 203 0
-724 725 0
-1206 268 1207 0
-126 1663 0
-54 785 0
-33 579 0
-745 751 0
-888 -201 0
-929 930 0
-1206 1210 0
-788 789 0
-1491 1492 0
-1252 92 1254 0
-470 -22 472 0
327 1379 0
-1459 -207 1460 0
-1727 -329 1729 0
-1696 1697 0
-1049 1050 0
-1832 1836 0
-1128 -326 0
-1895 1896 0
-1254 1255 0
-1073 284 0
-1530 -116 1531 0
-1774 1777 0
-1113 1114 0
-1491 269 1493 0
-740 53 742 0
-67 967 0
-1168 87 1170 0
-138 1810 0
149 1903 0
-130 0
-1311 1315 0
-1127 -325 0
-525 -28 0
-1637 1639 0
-66 931 0
-896 -203 897 0
-23 484 0
-215 -95 0
-130 129 0
-54 762 0
-581 -36 0
-1704 273 0
-491 495 0
-1053 1057 0
183 854 0
-1962 1963 0
-975 976 0
-1137 1143 0
-334 335 0
-314 313 0
-72 1009 0
-1883 1884 0
-207 -119 0
-221 -17 0
-935 66 937 0
-1627 -258 1628 0
-1738 136 0
-119 1571 0
-1580 122 1581 0
-1947 1948 0
-1811 -139 1813 0
-795 799 0
-1175 249 0
-1199 90 1201 0
170 627 0
-717 718 0
-911 227 912 0
-237 1026 0
-56 55 0
-1902 149 0
-1767 1771 0
-843 844 0
-320 619 0
-1550 -330 0
-785 -55 787 0
-401 402 0
-19 467 0
-921 924 0
-1184 1188 0
103 1396 0
-78 1055 0
-600 601 0
-1261 -92 1263 0
-1778 220 0
-1809 1810 0
-1027 1028 0
-1158 -86 1159 0
-1367 1368 0
-973 -313 0
-1282 -174 1284 0
-1284 -175 0
-1874 -306 0
-148 1899 0
-1762 -195 1763 0
-1304 -94 1306 0
-784 785 0
89 1204 0
-1873 -305 0
-1834 1838 0
-1551 1552 0
-1066 1072 0
-1309 1314 0
-139 1840 0
-650 201 651 0
-1423 -249 0
-1542 -116 1544 0
-1682 130 1684 0
-452 -19 454 0
-87 1212 0
-1618 -124 1620 0
-1718 132 1720 0
-1691 -207 0
-1782 -138 1784 0
-592 -236 0
-652 653 0
-1984 165 1986 0
-531 534 0
-29 552 0
-1763 -196 0
-1987 166 1989 0
-190 189 0
-296 1111 0
-1959 1964 0
-794 -290 795 0
-591 -235 0
-730 -310 731 0
273 1905 0
-279 -149 0
-1051 -78 1052 0
-792 -56 793 0
-5 356 0
-867 61 869 0
-1210 269 1211 0
-1599 -232 0
-669 47 0
-1660 317 1661 0
20 449 0
-223 542 0
-594 -39 0
-835 838 0
-450 234 0
-1198 89 1200 0
-608 320 610 0
125 1634 0
-1802 1803 0
-398 281 0
-1297 1301 0
-132 1712 0
-1020 1021 0
-799 -292 0
-277 -67 0
-84 1151 0
-57 839 0
145 1877 0
-116 115 0
-1699 271 1701 0
-1795 139 1797 0
-1544 1545 0
-901 64 903 0
-337 3 0
-1232 92 1234 0
-1089 80 1091 0
-702 256 0
-1670 1671 0
-826 -305 0
-300 299 0
-1023 1024 0
-1169 88 1171 0
-661 -201 0
-86 1162 0
-114 1509 0
-1207 269 0
-1728 1729 0
-460 463 0
-1607 1610 0
-294 0
-1826 141 1828 0
-34 571 0
-1064 1071 0
-1335 278 1337 0
-1385 189 1387 0
-1188 -247 1189 0
-233 590 0
-1906 150 1908 0
-366 246 0
-644 647 0
-104 103 0
-798 -291 799 0
-474 -254 0
-1060 79 1062 0
-554 -31 556 0
-1994 1996 0
-1529 -299 0
-1779 -136 1781 0
158 1945 0
-1936 1937 0
-949 950 0
-1815 1818 0
-745 276 747 0
-288 287 0
-1148 229 1149 0
12 399 0
-1154 1155 0
-406 -281 408 0
-1159 -227 1160 0
-1797 140 1799 0
-1979 1981 0
-879 202 880 0
-297 -91 0
122 1582 0
-1274 1275 0
-1648 -285 1650 0
-318 -317 -152 -151 0
-211 735 0
-429 18 0
-1032 1037 0
-1947 243 0
-832 833 0
161 1955 0
-1464 112 1466 0
85 1142 0
-866 60 868 0
-691 692 0
-954 956 0
-1862 287 0
-833 837 0
-30 29 0
-1943 -196 0
-540 -222 0
-50 725 0
-711 -254 713 0
6 360 0
-247 934 0
-1454 -205 1456 0
-371 373 0
-31 558 0
-557 -275 0
-1299 1303 0
-149 1914 0
-640 46 642 0
-1158 1162 0
-1942 -195 0
-539 -221 0
69 0
-574 575 0
-1753 -136 1755 0
-1783 1784 0
-696 698 0
-1369 -297 1371 0
-1579 122 0
-1341 1342 0
-1200 1201 0
-215 1416 0
-708 -253 710 0
-779 291 0
-1079 1082 0
-940 265 942 0
-418 419 0
153 1928 0
-39 595 0
-1603 1607 0
-1628 -259 1629 0
-1967 1968 0
-1666 1667 0
-164 1992 0
77 1035 0
-1566 -176 1567 0
-1161 1165 0
-1474 -111 1476 0
-1709 -132 0
-59 882 0
-993 -191 0
-1219 -268 0
-1272 173 1274 0
-1315 -205 0
-1741 193 1742 0
-1346 1348 0
-238 1325 0
154 1929 0
-1888 148 1890 0
-821 824 0
-1848 -142 1849 0
-313 -81 0
-437 441 0
-956 -267 0
-857 -60 859 0
-551 276 0
-805 303 807 0
-1308 -96 1310 0
-313 1267 0
-628 172 0
-677 225 678 0
-164 163 0
-1733 -332 0
-1592 1593 0
167 0
-837 323 838 0
-1714 1716 0
-1045 -77 1047 0
-625 627 0
-251 -129 0
-1978 -164 0
-52 754 0
-1291 1297 0
-437 -18 439 0
-488 489 0
-1392 1394 0
-1534 1539 0
-817 -57 819 0
-887 892 0
-1655 1658 0
-950 952 0
-552 553 0
-651 202 0
-1737 1741 0
-387 391 0
-1014 1016 0
-1832 142 1833 0
-1952 162 1954 0
-90 89 0
-1960 1961 0
-544 31 546 0
-1035 78 1036 0
70 981 0
-1538 1541 0
-1377 326 0
-1076 1077 0
-1102 -81 1104 0
180 0
-295 479 0
-274 273 0
-415 319 417 0
311 963 0
138 1795 0
-765 -276 766 0
124 1631 0
-1601 1606 0
-1702 1703 0
-1061 1062 0
-1983 164 1985 0
-414 415 0
-1017 1019 0
-128 1675 0
-1833 259 1834 0
-1930 155 0
-1111 -297 1112 0
-265 -51 0
-1659 1661 0
-293 -113 0
-1004 214 1006 0
-1386 1387 0
-988 -70 990 0
-16 15 0
301 0
-830 58 832 0
-598 599 0
-216 1418 0
-1960 -161 1962 0
-834 322 0
93 1270 0
-25 497 0
-361 362 0
-1129 -84 0
-1847 1851 0
-861 -184 0
-1910 1911 0
157 0
-72 0
-306 1875 0
-1287 -176 0
-522 -27 524 0
-235 -51 0
-760 -275 761 0
-1197 89 1199 0
-1264 1268 0
-1249 -293 0
-368 -7 370 0
-1327 1328 0
110 1444 0
-251 -139 0
-1788 1793 0
13 0
-216 0
-1710 1712 0
-806 807 0
-1488 1496 0
-1899 -251 1900 0
-1953 1954 0
-801 57 803 0
-4 3 0
-1537 328 0
-870 871 0
-1313 -203 1314 0
-1739 193 0
-1056 -256 1057 0
-1227 -270 0
-864 -185 865 0
-990 991 0
-1510 1513 0
-1036 255 1037 0
-95 1312 0
-1838 261 1839 0
-1722 330 1724 0
-1835 261 0
-407 408 0
-670 672 0
-631 -169 633 0
-137 1809 0
-1174 1175 0
-1375 102 0
-82 1107 0
-1636 1638 0
-1151 1158 0
-185 1131 0
-1072 283 1073 0
-1693 -208 0
-591 592 0
-129 1706 0
-1059 78 1061 0
-270 269 0
-813 305 814 0
-146 1882 0
-1577 1580 0
-1771 217 1772 0
-142 1852 0
-1858 143 1860 0
-1903 1904 0
-510 28 512 0
-885 -62 887 0
-388 -10 0
-1508 -270 0
-90 1224 0
-333 334 0
-62 914 0
-1455 -206 1457 0
-113 1506 0
147 0
-1076 -79 1078 0
-877 881 0
-1263 -313 1265 0
-1462 111 1464 0
-459 460 0
-384 -8 386 0
-215 -83 0
29 543 0
-138 137 0
-243 -145 0
-658 659 0
7 375 0
45 667 0
-1503 1507 0
-883 -61 885 0
3 0
-52 734 0
-1425 1426 0
-389 -263 0
-446 20 0
-1934 195 1935 0
-48 704 0
-1608 258 0
-1786 1792 0
8 376 0
321 836 0
-1246 1248 0
-862 865 0
-1090 81 1092 0
-322 321 0
-1974 280 0
-1767 138 1769 0
-1968 163 1970 0
-541 542 0
-720 311 0
4 342 0
-1770 1773 0
-1220 -90 1221 0
316 1660 0
-142 1865 0
1 336 0
-362 8 364 0
-1308 1309 0
-1187 1190 0
-901 909 0
-1885 146 1887 0
-1691 1693 0
-1954 1957 0
-64 63 0
-1837 260 1838 0
-1249 1251 0
-1108 1110 0
-184 183 0
-234 591 0
-1382 187 1384 0
-106 1414 0
-1125 -324 1127 0
120 1577 0
-1131 -186 0
-248 247 0
-467 468 0
-370 -8 0
-1312 1316 0
-1676 1677 0
-1293 203 1295 0
-388 389 0
-991 993 0
-1234 1235 0
-43 652 0
-593 594 0
-812 304 813 0
-1116 324 0
-831 321 833 0
-369 -7 0
-756 -54 758 0
-1093 1094 0
-118 1561 0
-128 0
-704 -49 706 0
-1501 -113 1503 0
-2001 2002 0
-1565 -177 0
-1253 1258 0
-1122 -323 1124 0
312 965 0
-560 -276 0
-79 1080 0
-1138 86 1140 0
-572 573 0
-1615 -122 1617 0
-1054 1058 0
-37 588 0
-1656 315 0
-976 977 0
-1581 229 0
-1461 110 1463 0
-1286 -175 1287 0
-1359 1361 0
-964 313 0
-455 456 0
-1751 -135 1753 0
-43 629 0
-1292 96 1294 0
100 1352 0
-1585 231 0
-1742 1745 0
-844 -323 0
-881 204 0
128 1679 0
-1563 1567 0
-1017 -215 0
-639 640 0
-1967 162 1969 0
-1505 1508 0
-344 6 346 0
-959 68 961 0
-1485 1486 0
-843 -322 0
-1043 1044 0
-1310 -203 0
-1770 138 1771 0
-20 468 0
-922 925 0
-1353 101 0
-1825 1832 0
-1868 1870 0
-137 1789 0
-487 -310 0
-1729 -330 0
-1211 270 0
-1622 -258 1624 0
-1386 189 0
-402 -11 404 0
-60 59 0
-56 816 0
-293 -143 0
-1829 1834 0
-527 -28 528 0
-958 -268 0
-1411 1413 0
-1451 208 0
-124 123 0
41 605 0
-93 1279 0
-741 749 0
-565 566 0
-444 447 0
-1884 -232 0
-244 243 0
-1242 -91 0
-893 -203 0
-62 894 0
-1790 -217 1791 0
-761 -276 0
-1031 1032 0
-1870 -287 1871 0
-1684 207 0
-789 794 0
-1046 1052 0
-1883 -231 0
-1025 -237 0
-1736 1737 0
-653 -45 655 0
-867 874 0
-1238 293 0
-1396 104 1398 0
-1153 -86 1155 0
-1856 1857 0
-1478 1480 0
-520 200 0
-187 1392 0
-170 169 0
-97 1322 0
-1504 -114 0
-1624 -259 0
-1015 1017 0
26 489 0
-49 724 0
-1598 1599 0
-1365 -101 1367 0
-296 295 0
-1298 1302 0
-394 397 0
-269 -97 0
-438 -18 0
-733 -52 0
-1219 1223 0
-1418 -217 1419 0
-1923 1924 0
-1412 -106 1413 0
-1514 -272 0
-777 781 0
161 1967 0
-1071 282 1072 0
-1698 132 1700 0
-1987 1988 0
-1812 -140 1814 0
-962 964 0
-38 37 0
-1908 1909 0
-1445 205 1447 0
-1622 1628 0
-1827 1833 0
-1024 1025 0
-687 -224 689 0
49 715 0
-762 765 0
-222 221 0
-378 382 0
-69 988 0
-356 -6 357 0
-68 953 0
-1962 -162 0
-1650 1651 0
-1529 1532 0
-1932 156 1933 0
-919 -64 920 0
-1067 1068 0
-1468 240 1470 0
-1391 -188 0
-645 648 0
-345 6 0
-781 290 782 0
-84 1130 0
-1240 -90 1242 0
-1634 126 1635 0
113 1495 0
-1821 -242 1822 0
-1975 1976 0
-304 303 0
-1533 1534 0
-132 1727 0
-315 -115 0
-884 -61 886 0
-1173 248 1175 0
-1995 1997 0
-1611 1614 0
-1407 218 0
-84 83 0
-849 854 0
-1858 1859 0
-589 -233 0
147 1901 0
-1752 1760 0
-892 -202 893 0
-1637 286 0
-1018 -215 1019 0
-1818 -241 1819 0
-1916 1917 0
-1948 244 0
-1134 1135 0
-24 478 0
-1126 -325 1128 0
148 1902 0
-269 -107 0
-1658 1660 0
-894 -201 895 0
-399 281 400 0
-1901 1902 0
-273 -141 0
-1756 1762 0
-292 291 0
-841 -321 843 0
-1777 219 1778 0
-714 -256 0
-100 1364 0
-56 796 0
-996 72 998 0
-1381 187 1383 0
-1864 -142 1866 0
-380 263 0
-855 185 856 0
-211 -45 0
-618 620 0
-653 662 0
-1772 218 0
-34 33 0
-1080 1083 0
-1388 -104 1390 0
-1759 -136 1760 0
-609 320 611 0
-98 97 0
21 463 0
-40 596 0
-1584 1586 0
199 649 0
-1526 1527 0
-539 540 0
-60 883 0
-657 664 0
-758 761 0
-218 217 0
-738 739 0
-1935 196 0
-239 1326 0
-1147 228 1148 0
-943 944 0
-965 313 966 0
57 830 0
-718 310 720 0
-822 825 0
-1435 -108 1437 0
9 381 0
-1083 1086 0
-128 1687 0
-422 423 0
-1205 1209 0
-1575 -194 0
-1830 1831 0
-1170 88 1172 0
-253 -29 0
-1327 98 1329 0
-1574 -193 0
-825 828 0
-992 -72 993 0
-1351 100 1353 0
-1452 1453 0
-1515 114 1517 0
130 1695 0
-359 6 361 0
-144 143 0
-237 -85 0
-1276 174 1277 0
-1635 285 0
-1713 -272 0
-1539 328 1540 0
-472 -253 474 0
-1561 -175 1563 0
-842 -322 844 0
-1572 1573 0
-931 932 0
-555 -32 557 0
-790 791 0
-1393 1395 0
-1009 1012 0
-368 371 0
-328 327 0
-1839 262 0
-1568 -178 0
-1757 -194 0
-1115 1116 0
-509 517 0
-449 233 450 0
-1649 -286 1651 0
-1907 151 1909 0
-71 1008 0
-1798 140 1800 0
-210 584 0
-12 11 0
-1519 1520 0
61 898 0
-1623 -258 0
-295 -49 0
-118 1570 0
-1597 -231 1599 0
-1586 231 1587 0
-70 69 0
-1801 1807 0
-998 999 0
62 899 0
-857 858 0
-196 195 0
-205 1458 0
-1931 156 0
-107 1435 0
-175 1566 0
-1370 -298 1372 0
-818 822 0
-1482 -241 0
-61 913 0
59 866 0
-1280 1285 0
-740 741 0
-265 -49 0
-1139 1144 0
-986 191 0
-498 503 0
-1030 78 1032 0
-271 1714 0
-752 278 0
-480 24 482 0
-278 277 0
-146 1894 0
-1789 -138 1790 0
-1845 -259 1847 0
-26 498 0
303 0
-954 -266 0
-526 -197 0
-1119 325 1120 0
121 1600 0
-981 71 983 0
-58 57 0
-1706 1707 0
-1848 1852 0
-1415 -216 0
-1813 -140 0
-135 1759 0
-341 342 0
181 567 0
159 0
-923 926 0
45 643 0
-20 19 0
-576 -182 577 0
-1274 174 0
-1182 -87 1184 0
-1620 -257 1622 0
-1769 1772 0
-1711 1713 0
-141 1864 0
-1731 -331 0
-465 253 466 0
-1900 -252 0
-431 18 432 0
-1513 -271 1514 0
-1611 259 0
163 1983 0
-1875 1876 0
-525 526 0
-1538 329 0
-1228 1229 0
-421 -320 0
98 1328 0
-1433 1434 0
-1690 1692 0
179 1927 0
-1292 1293 0
33 561 0
53 768 0
-544 549 0
-807 813 0
-1511 1514 0
-123 1625 0
-1632 1633 0
126 1655 0
-330 329 0
-850 851 0
-1553 1554 0
-729 732 0
-1361 299 1362 0
-1822 -243 1823 0
-1080 -80 1081 0
135 1740 0
-1510 -270 1511 0
-1617 1618 0
-1077 -80 1079 0
-610 321 612 0
-295 1109 0
-8 7 0
-818 -58 820 0
-72 71 0
-36 582 0
-305 -131 0
-1942 1943 0
-269 1512 0
-130 1707 0
-3 350 0
-237 0
-1500 1501 0
-790 -289 0
-1116 1118 0
-495 169 496 0
-192 191 0
-917 918 0
-536 -28 0
-1525 -115 1527 0
-1534 327 1536 0
-1606 124 1607 0
-732 -312 0
-1961 1965 0
-1562 -175 1564 0
-1684 1685 0
-1411 -106 0
-1199 1205 0
-1659 317 0
-1242 1243 0
-1101 1102 0
-1865 -143 1867 0
-91 1261 0
89 1228 0
-1328 99 1330 0
-995 -192 0
149 0
20 460 0
-1241 1244 0
-580 581 0
-400 282 0
-1404 216 1406 0
-1908 151 1910 0
-33 570 0
-118 117 0
-984 985 0
-1001 213 1003 0
-1320 -96 0
-1546 1547 0
-1954 261 0
223 675 0
-700 255 0
-1655 315 1657 0
-1751 1752 0
-531 -198 532 0
-643 646 0
27 28 29 30 221 222 223 224 0
-671 48 672 0
-697 253 698 0
-828 -305 829 0
-302 301 0
-352 -5 354 0
-1168 1169 0
-521 522 0
-1867 -144 0
-1429 1430 0
-1573 -192 0
-912 228 0
-1288 1289 0
-526 529 0
-1135 85 1137 0
-281 -49 0
-506 507 0
-1109 1111 0
-485 -309 487 0
-1493 1494 0
257 1612 0
-528 -197 529 0
-235 592 0
-705 706 0
-1572 -191 0
-1905 274 0
-44 43 0
-979 174 0
-1849 -259 1850 0
-350 -4 352 0
-476 -23 0
-1257 315 0
-447 449 0
-1280 -173 1282 0
-1313 1317 0
143 144 305 306 307 308 0
-913 -62 915 0
-167 503 0
-1215 -90 1217 0
-293 -131 0
-422 -16 0
-588 589 0
-1938 1939 0
-1817 1820 0
-241 -121 0
-494 168 495 0
47 691 0
-1299 205 0
-1814 -241 0
-426 17 428 0
-1214 1215 0
-1477 1479 0
-672 223 0
-1058 -258 0
-213 737 0
-38 589 0
-252 251 0
-1079 -281 0
-523 -27 525 0
-1653 -288 0
-265 955 0
-956 958 0
-1680 1681 0
69 980 0
13 411 0
-863 -184 864 0
-898 899 0
-1332 277 1334 0
-1021 -75 0
-1034 1038 0
-757 758 0
117 1551 0
-1097 1098 0
-1360 1362 0
-1664 -315 1666 0
-601 -41 0
-1654 126 1656 0
-1864 1865 0
-1743 1746 0
-807 304 809 0
-1102 1105 0
-1732 -331 1733 0
-718 722 0
-886 -62 888 0
-698 700 0
53 748 0
-1422 1423 0
-1598 -231 0
-121 1615 0
-725 -309 727 0
-1281 1282 0
-1485 112 1487 0
-441 -209 442 0
-1265 -314 0
-1034 256 0
-776 780 0
-419 -319 421 0
-499 500 0
-178 177 0
-346 221 0
229 1584 0
-1975 -162 1977 0
-1195 -250 0
-93 1304 0
-28 530 0
-1208 267 1209 0
-1869 1871 0
-1178 248 1179 0
-1546 -328 0
-844 847 0
-1465 1466 0
-565 182 0
-277 -89 0
-257 -111 0
-823 826 0
-1571 -120 0
-1969 163 1971 0
-1008 1009 0
-360 7 362 0
-784 -54 786 0
-1086 -282 1087 0
-161 1964 0
86 1167 0
-738 52 740 0
-1731 1733 0
-642 199 0
-1333 1334 0
-144 1873 0
-1406 217 0
-849 183 851 0
102 1376 0
83 1134 0
-1173 1179 0
-462 22 0
-1376 325 0
-1715 -273 0
-1141 228 0
-108 1423 0
-281 1086 0
-1216 1217 0
-1701 272 1703 0
-280 0
-1983 1984 0
-633 634 0
-381 10 382 0
77 1059 0
-1268 -315 1269 0
-1662 -126 1664 0
-492 493 0
-1214 -89 1216 0
-1735 1740 0
-162 1976 0
51 52 211 212 213 214 0
-98 1323 0
-1036 1040 0
-1400 1401 0
-1657 1659 0
-753 754 0
-832 321 834 0
-1016 1018 0
108 1428 0
-1536 1540 0
-92 91 0
-14 419 0
-1616 -123 1618 0
127 1670 0
-127 1674 0
-394 11 396 0
-1785 -217 1787 0
-817 818 0
-769 55 771 0
-586 -36 0
128 1671 0
-2003 -166 2005 0
-375 376 0
-99 1363 0
-1078 1079 0
-266 957 0
-1220 1224 0
-65 947 0
-937 938 0
-9 390 0
-276 275 0
-905 226 907 0
-275 765 0
169 625 0
-1039 255 1040 0
-354 355 0
-489 167 491 0
-617 619 0
-1221 -267 1222 0
-330 1732 0
-900 63 902 0
13 414 0
-108 1436 0
-1545 1549 0
224 677 0
-1144 228 1145 0
-1467 1468 0
-480 481 0
-1600 122 1602 0
-809 305 0
-1498 271 1499 0
-1484 -242 0
-679 680 0
-18 17 0
-342 5 344 0
-884 885 0
-1882 -231 1884 0
-1709 1711 0
-934 -248 0
-1004 1005 0
-1552 175 1554 0
-363 364 0
-283 1439 0
-10 402 0
-1780 -137 1782 0
-1181 -86 1183 0
-1912 1913 0
-868 61 870 0
3 341 0
-379 10 0
-1066 282 1068 0
-1160 -228 1161 0
-1329 1330 0
-1917 -152 0
-547 548 0
-226 225 0
-726 -309 728 0
-746 747 0
-1430 284 1432 0
-1654 1655 0
-1917 1919 0
-1700 271 1702 0
-1061 79 1063 0
-80 1102 0
9 393 0
-189 -117 0
-1271 1276 0
-1694 130 1696 0
-712 -255 714 0
-1791 -218 1792 0
-1490 1497 0
-930 931 0
119 1576 0
-1896 1898 0
-897 -204 0
-277 1347 0
-193 1575 0
325 0
-1396 1397 0
-409 410 0
-672 674 0
-1275 1278 0
-728 -310 0
-654 -45 656 0
-891 895 0
-1201 267 1203 0
-1043 -76 1045 0
-552 -30 554 0
-1840 -140 1842 0
-493 496 0
-1871 -288 0
-473 474 0
-1041 257 1042 0
-1557 176 1558 0
-1820 -243 0
-25 521 0
-692 695 0
-152 151 0
-285 -113 0
-571 576 0
-1554 176 1556 0
-1638 1640 0
-1769 217 0
-115 1530 0
-1085 -283 0
-1625 -124 1626 0
-939 940 0
-1374 -300 0
-111 1500 0
-1846 -259 0
-1095 295 1097 0
-231 -137 0
-1705 274 0
-1590 -121 1592 0
-1019 -216 0
-51 733 0
-1594 -229 1596 0
-1764 1765 0
-1123 1124 0
-445 19 0
-476 477 0
302 0
-355 358 0
101 1355 0
-1322 1323 0
-239 -105 0
-1585 1587 0
-1665 -316 1667 0
-1181 1182 0
-540 541 0
-410 13 0
-719 310 0
205 1449 0
-1638 286 1639 0
-759 762 0
-434 -16 436 0
-638 643 0
-1887 147 1889 0
-78 77 0
-880 203 881 0
-660 661 0
-1142 1146 0
-111 1477 0
-723 312 0
71 996 0
-1047 -78 1049 0
-1525 1530 0
-1248 1250 0
-262 261 0
-1528 -116 0
-1976 -163 1978 0
-516 28 517 0
-848 60 850 0
-543 544 0
-977 172 0
-340 198 0
-1569 -118 0
-293 -99 0
-607 608 0
-757 -54 0
-908 64 909 0
-1466 239 1468 0
-514 198 0
-99 1343 0
-1323 -237 0
-1894 1897 0
-1172 247 1174 0
-1469 240 1471 0
-1573 1574 0
-1115 323 0
-824 -303 825 0
150 1904 0
-1087 -283 1088 0
-1243 -92 0
171 0
-1835 1839 0
-1817 -242 0
-17 451 0
-250 249 0
-1757 1758 0
-469 470 0
-580 -35 0
-1082 -282 0
-1371 -298 1373 0
-259 -129 0
-211 585 0
-361 7 363 0
-644 199 645 0
-1953 162 0
-1236 1237 0
-1880 232 0
-1213 1220 0
-247 1193 0
-937 67 939 0
-198 -197 -4 -3 -2 -1 0
-872 201 0
-532 535 0
-435 -17 437 0
-658 -199 660 0
-1804 140 1805 0
-353 357 0
-1420 1421 0
141 1832 0
-859 -183 861 0
76 1028 0
-978 979 0
-1824 1825 0
-442 -210 0
-875 201 876 0
15 16 181 182 0
-536 537 0
-1408 -104 1410 0
-1440 1442 0
-1786 -218 1788 0
-373 -245 374 0
-395 396 0
14 415 0
132 1719 0
-994 -191 995 0
-670 48 0
-1834 260 1835 0
-1613 259 1614 0
-1799 241 1801 0
-699 254 700 0
-200 199 0
-920 -225 921 0
-1912 293 0
-1225 -268 1226 0
-1695 131 1697 0
-1507 1510 0
-258 257 0
-717 309 719 0
-1487 1488 0
-548 275 0
-783 292 0
-1283 -174 0
-1045 1046 0
-1565 1568 0
-924 927 0
-1275 175 0
-1245 -291 0
-904 905 0
62 878 0
-1444 1449 0
-1891 1892 0
-104 0
-291 1248 0
-112 1479 0
-40 601 0
-1582 229 1583 0
-1558 177 1559 0
-235 -47 0
-1643 -125 1645 0
-1711 -271 0
-1107 -295 1108 0
-1957 262 0
-1229 91 1231 0
-126 125 0
46 646 0
-165 2003 0
217 1776 0
-1358 298 0
-1471 241 0
-1981 -279 1982 0
-772 773 0
-735 -212 0
-1588 -120 1590 0
-971 972 0
-310 309 0
149 1906 0
-1879 1880 0
-96 1321 0
-41 613 0
109 1461 0
-1738 1739 0
-1354 1356 0
-185 -69 0
-279 -113 0
-571 -181 573 0
-1678 128 1680 0
150 1907 0
-791 795 0
-514 515 0
-1429 283 1431 0
-1264 -314 1266 0
-1260 316 0
-713 714 0
-662 -46 663 0
-1212 -88 1214 0
-1277 175 1278 0
-52 51 0
327 1539 0
-1841 1848 0
-396 12 0
-1621 1622 0
-1922 1923 0
-212 736 0
-1857 143 1859 0
-447 20 448 0
-235 0
-839 840 0
-1863 288 0
-172 171 0
-724 -50 726 0
-1078 -80 0
-786 -55 788 0
-1480 -240 0
-236 235 0
-460 21 462 0
-1999 166 2001 0
-1664 1665 0
114 1516 0
-1040 256 1041 0
-581 582 0
-1357 297 1358 0
-1038 257 0
-1012 -74 1013 0
-1470 241 1472 0
-396 398 0
-1723 331 1725 0
-1989 1990 0
-660 -200 0
151 0
-1028 77 1030 0
-1828 142 1830 0
-980 70 982 0
-643 46 644 0
-1406 1407 0
146 1886 0
-271 -123 0
-1074 -78 1076 0
-1516 115 1518 0
-392 -264 0
-635 -171 0
-1281 -173 1283 0
-2001 331 0
-1898 -251 0
-1872 1873 0
-764 767 0
-1961 -162 1963 0
-143 1868 0
-1347 1349 0
-1610 1613 0
-342 347 0
-443 444 0
-1619 -124 1621 0
-473 -253 0
-1728 -329 0
-209 -27 0
-295 -67 0
142 1857 0
-851 184 853 0
-1062 80 1064 0
-1829 259 1831 0
-1248 -292 1249 0
-1621 -257 1623 0
159 1946 0
-768 769 0
-279 -123 0
-647 650 0
-1886 147 1888 0
-23 477 0
-1473 1474 0
-385 390 0
-306 305 0
-725 730 0
-90 1241 0
-448 450 0
-1352 1355 0
-277 -77 0
129 1694 0
167 494 0
-1383 188 1385 0
-1604 124 0
23 480 0
-1798 1799 0
-579 -34 0
-559 -275 560 0
66 936 0
-1145 229 0
-510 511 0
-1414 1416 0
-1057 -257 1058 0
-389 392 0
-825 -304 826 0
-369 370 0
-851 855 0
-1856 142 1858 0
-48 47 0
-971 -312 973 0
-263 -21 0
-1088 -284 0
-1123 -323 1125 0
-1136 1137 0
-112 111 0
-1949 160 1951 0
-795 -291 0
-518 198 519 0
-1372 -299 1374 0
-617 -320 618 0
-1035 1039 0
-232 231 0
-1461 1462 0
-1340 1343 0
-942 266 944 0
-1346 -278 0
-39 0
-1481 1483 0
-1744 1747 0
-1775 219 0
-1724 1725 0
117 118 119 120 191 192 193 194 0
-1526 -115 1528 0
-1535 327 1537 0
-436 437 0
-699 701 0
-1844 1845 0
-1013 -213 0
-1082 1085 0
-1417 -217 0
-127 1686 0
-1409 -105 1411 0
-100 99 0
-1329 99 1331 0
-556 -32 0
-566 183 0
-1528 1529 0
-239 1481 0
-158 157 0
-500 -168 502 0
-1266 1269 0
-1606 1609 0
-945 946 0
-824 827 0
-284 283 0
-1842 -141 1844 0
-1802 242 0
-425 16 427 0
-801 810 0
-1944 158 0
-1702 272 1704 0
-1207 1211 0
-751 277 752 0
-502 -169 0
-1270 1271 0
-1810 1815 0
-307 1876 0
-758 -275 0
-1129 1130 0
134 1735 0
-1670 128 1672 0
-245 -19 0
-241 1821 0
-687 688 0
-1465 112 1467 0
-566 569 0
-1977 -163 0
-26 25 0
-241 -129 0
-1474 1477 0
-1592 -122 1594 0
-1454 1455 0
-351 -5 353 0
-1692 -207 1693 0
-146 145 0
-1552 1557 0
-546 32 548 0
-210 209 0
-914 -63 916 0
-1779 1780 0
-429 430 0
-1567 -177 1568 0
-1153 1159 0
323 1117 0
-769 776 0
-953 955 0
-1527 -116 1529 0
-1139 227 1141 0
-1196 1197 0
-453 -19 455 0
52 739 0
-370 372 0
-613 614 0
-1579 1581 0
-1985 165 1987 0
-315 -101 0
-538 -30 0
86 1146 0
-773 778 0
-1300 203 1301 0
-1380 1381 0
-1511 -271 0
-1799 1806 0
-511 518 0
-695 697 0
-887 -201 889 0
-537 -29 0
-45 662 0
-387 -10 389 0
-1520 1523 0
-1846 1847 0
-713 -255 0
-957 -267 958 0
-612 322 0
-1311 -204 0
-1803 1808 0
-816 821 0
-1263 1264 0
-281 -67 0
-180 -179 -154 -153 0
21 22 23 24 295 296 0
-515 520 0
-1996 -307 0
-1473 -110 1475 0
-1712 -271 1713 0
-874 62 875 0
-1878 231 1880 0
-623 169 0
-444 19 446 0
-1255 314 1257 0
-115 1542 0
-1889 1890 0
-1203 268 0
-601 602 0
-1322 -98 0
-284 1441 0
-899 908 0
-1447 1448 0
-397 12 398 0
-280 279 0
-245 -29 0
-666 -202 0
15 425 0
-955 -266 956 0
-263 597 0
31 549 0
-74 1021 0
-500 504 0
-1850 1854 0
-30 539 0
-1458 -206 1459 0
-240 1483 0
-484 485 0
-903 910 0
-1247 1249 0
-343 344 0
-440 -18 441 0
-1395 -190 0
-22 21 0
-1614 260 0
-154 1937 0
-1771 1774 0
160 1947 0
-1713 1715 0
-1976 1979 0
-86 85 0
-1955 162 1956 0
-1188 1191 0
-782 291 783 0
326 1378 0
-467 -20 469 0
-426 431 0
-105 1420 0
-1373 1374 0
-206 205 0
-173 1285 0
-63 928 0
-1668 -317 0
-35 581 0
-1963 -261 0
-1897 1899 0
-989 -71 991 0
-1446 206 1448 0
-852 853 0
-1698 1699 0
83 84 185 186 187 188 0
-2004 -331 2006 0
-410 411 0
-673 675 0
-809 814 0
-1256 1257 0
-1626 -257 1627 0
-1616 1625 0
-26 522 0
327 0
-1639 1641 0
-735 736 0
-1518 1522 0
-614 617 0
-1101 -80 1103 0
-430 209 0
-594 595 0
43 621 0
-44 653 0
-112 1501 0
-1016 -214 1017 0
-132 131 0
-382 263 383 0
-966 314 0
-676 678 0
-1560 1561 0
-58 840 0
-555 559 0
-775 290 0
-550 275 551 0
-1587 232 0
-1317 -204 1318 0
-477 478 0
-625 170 626 0
46 668 0
-1657 316 0
-471 -22 473 0
-336 337 0
-190 0
-506 26 508 0
-1885 1886 0
115 1521 0
-1103 1104 0
-599 -266 0
-338 4 0
304 0
-1143 227 1144 0
-1949 1950 0
-898 62 900 0
-1201 1206 0
-1861 287 1863 0
-187 -93 0
-490 167 492 0
-44 630 0
-931 -245 0
-1266 -315 0
135 1764 0
-709 -253 711 0
-632 -170 634 0
-941 265 943 0
-986 987 0
-1506 1509 0
-804 58 806 0
-1164 -229 1165 0
-17 440 0
136 1765 0
-1520 299 0
-1904 273 0
-403 404 0
-978 173 0
-100 1345 0
-743 750 0
-1190 1193 0
-309 -41 0
-1811 1812 0
-1170 1171 0
-515 199 0
-1389 1392 0
-1781 -137 1783 0
-1369 1370 0
193 1746 0
-728 729 0
-587 588 0
-629 -44 631 0
-999 74 1001 0
-1816 1819 0
-1427 108 1429 0
-1717 -274 0
-266 265 0
-1048 1053 0
317 0
-747 752 0
-772 56 774 0
-1200 90 1202 0
324 1119 0
95 1296 0
-869 875 0
-1694 1695 0
243 1948 0
-94 1280 0
-385 -9 387 0
-1431 284 1433 0
160 1950 0
104 1381 0
173 0
-1315 1319 0
-1869 -287 0
-53 759 0
-203 -83 0
-414 14 416 0
-654 655 0
-1950 161 1952 0
-1421 1422 0
-588 -38 0
-916 920 0
107 1427 0
-1507 -269 1508 0
-545 31 547 0
-318 317 0
-303 -49 0
39 40 41 42 289 290 0
-1352 101 1354 0
-1945 1946 0
-1595 -230 1597 0
-1416 -216 1417 0
-1971 164 1973 0
-820 -303 0
-570 -34 572 0
-1022 1023 0
253 699 0
-1624 1629 0
-1745 1748 0
-1930 1931 0
-1182 1187 0
-1283 1284 0
-147 1897 0
-274 -273 -150 -149 -148 -147 0
-501 502 0
-292 1250 0
-1104 1106 0
-731 -311 732 0
-305 -81 0
-720 723 0
-180 179 0
-963 965 0
-1419 -218 0
-842 846 0
156 1934 0
-797 -290 798 0
-1345 -277 1346 0
-1414 -215 1415 0
-498 -167 500 0
67 959 0
-424 -182 0
-1813 1814 0
-505 -170 0
-41 602 0
309 721 0
-695 50 696 0
-1672 1673 0
-1025 1026 0
-384 385 0
-1230 1231 0
-1089 1090 0
-1307 1313 0
-7 371 0
-827 -304 828 0
-461 21 0
-705 -49 707 0
-645 200 0
-1295 204 0
-166 2004 0
92 1253 0
-1866 -143 0
-1941 -195 1943 0
-1050 1054 0
-646 649 0
-106 105 0
-1754 1761 0
-488 26 490 0
-161 1975 0
-1742 194 0
-1355 1357 0
-451 452 0
-13 418 0
-475 -22 0
-464 253 0
-295 -55 0
-1378 327 0
-529 532 0
-792 796 0
-1156 1157 0
-1720 329 1722 0
-1758 1763 0
-1997 -307 1998 0
-451 -18 453 0
-131 1710 0
-1175 1180 0
-729 -311 0
-635 636 0
-834 835 0
-1055 -255 1056 0
-448 233 0
-1939 -156 1941 0
-257 -87 0
-32 31 0
162 1968 0
-655 663 0
-860 -184 862 0
-819 820 0
-329 1730 0
-1847 -260 0
-1052 -255 1053 0
126 1636 0
-377 378 0
-1160 1164 0
-1926 1927 0
-835 323 0
-1785 1786 0
-1162 -227 1163 0
-1543 1548 0
-690 -226 0
-524 -28 526 0
-9 401 0
50 716 0
-561 562 0
-1202 1203 0
-1998 -308 0
230 1586 0
-240 239 0
153 0
-1251 -294 0
-1610 258 1611 0
-1205 267 1206 0
-871 201 873 0
-213 1016 0
-1668 1669 0
-684 -223 686 0
-953 -265 954 0
111 1485 0
-1547 1550 0
-321 845 0
-1062 1070 0
-886 887 0
-1305 1312 0
-2002 332 0
-55 815 0
-1390 -187 0
-1696 131 1698 0
-455 -20 457 0
-1348 1350 0
-1522 299 1523 0
-463 22 464 0
-165 1995 0
-1134 84 1136 0
112 1486 0
-1993 1994 0
17 431 0
-1989 307 0
-1366 -102 1368 0
-1410 1411 0
-423 424 0
-166 165 0
-1234 291 1236 0
-1915 1918 0
-1011 1013 0
-301 -23 0
-890 894 0
-1230 91 1232 0
-1594 1595 0
-289 -49 0
-55 792 0
-511 197 513 0
-1415 1417 0
-257 -97 0
-574 -182 0
-1720 1721 0
105 106 107 108 249 250 251 252 0
-1824 140 1826 0
-831 836 0
-932 933 0
-255 -51 0
-1273 1277 0
-688 -225 690 0
-996 997 0
-1995 -166 1996 0
-747 277 0
-1904 1905 0
-554 555 0
-413 302 0
142 1836 0
-1136 85 1138 0
-1321 1322 0
-154 153 0
-247 -75 0
-1502 -113 1504 0
-409 12 0
-593 -38 0
-507 27 509 0
-225 -51 0
-1282 1286 0
-1646 1647 0
-37 0
-1106 -295 0
-1141 1145 0
-1865 1868 0
-1236 292 1238 0
-1063 1064 0
-367 -6 369 0
-1180 250 0
-416 417 0
-1269 -316 0
58 831 0
-1766 1767 0
131 1718 0
-621 622 0
-529 -198 0
-1324 1325 0
-1971 1972 0
-1486 113 1488 0
-1183 1184 0
155 1932 0
-1710 -132 1711 0
-761 764 0
-1388 1389 0
-80 79 0
68 960 0
-987 192 0
-626 171 0
-1202 267 0
-1632 125 0
-1747 195 1748 0
-1803 243 0
-614 -319 616 0
-1945 159 0
-279 -131 0
-726 727 0
-214 1018 0
137 1770 0
-535 -200 0
-1849 1853 0
-682 -48 684 0
-264 263 0
-1130 1131 0
-257 -107 0
-691 48 693 0
-1827 142 1829 0
-57 821 0
-166 1997 0
-715 50 717 0
-1341 -99 0
-153 1936 0
-275 -39 0
-1872 -144 0
-403 -11 405 0
-1028 1035 0
-1679 129 1681 0
-1891 251 0
-808 809 0
-1916 -151 0
-667 668 0
-1633 1635 0
-737 -214 0
-6 5 0
49 695 0
-872 873 0
-263 -29 0
-547 32 0
-1155 -227 1157 0
-1488 114 1490 0
-1179 249 1180 0
-1439 -284 1440 0
-2006 -332 0
-244 -243 -160 -159 -158 -157 0
-675 224 676 0
63 64 65 66 245 246 247 248 0
-977 978 0
-1580 1582 0
-1877 146 1879 0
-1928 154 1930 0
-727 -310 729 0
-1629 -260 0
-1075 1080 0
-1439 1441 0
-1344 -277 0
-1438 -284 0
-1092 82 1094 0
-214 213 0
-734 735 0
-15 422 0
-876 880 0
-187 1133 0
-1963 1966 0
-1389 -187 1391 0
-1642 1643 0
-1117 1119 0
-719 720 0
82 1114 0
-1059 1060 0
-1560 -118 1562 0
-1373 -299 0
-616 -320 0
-1193 -248 1194 0
-943 266 945 0
-1923 317 0
-1826 1827 0
-983 72 985 0
-1543 -327 1545 0
-1584 230 1585 0
102 1357 0
-279 -141 0
-624 170 0
-1384 1385 0
-1270 94 1272 0
-1008 -72 1010 0
-1319 -206 0
-110 1474 0
-468 -21 470 0
-116 1543 0
-602 603 0
-461 462 0
-519 199 520 0
-39 600 0
-85 1158 0
-1577 121 1579 0
-140 139 0
-6 368 0
-404 -12 406 0
-1601 123 1603 0
-275 -49 0
-1204 1208 0
-1037 256 1038 0
-1427 1428 0
-845 -322 846 0
-786 787 0
-833 322 835 0
-1683 207 1685 0
-324 323 0
-636 -172 0
-1893 1894 0
-906 907 0
115 1533 0
-1772 1775 0
34 562 0
-1631 1634 0
-869 62 871 0
-883 890 0
-375 8 377 0
157 1944 0
-1310 1311 0
-669 670 0
-1189 1192 0
-1650 -286 1652 0
-548 551 0
-1068 1073 0
-1927 180 0
116 1534 0
-1343 -100 1344 0
141 1856 0
-64 929 0
-1463 111 1465 0
57 810 0
-66 65 0
-1356 297 0
-668 671 0
-81 1105 0
-1898 1900 0
-1859 144 1861 0
-527 530 0
-1110 1112 0
-186 185 0
-395 11 0
-639 45 641 0
-753 -52 755 0
-973 974 0
-1455 1459 0
-1091 81 1093 0
-1553 175 1555 0
65 935 0
-1314 1318 0
-1678 1679 0
-1603 124 1605 0
-1377 1378 0
-915 -63 917 0
-117 1569 0
-993 995 0
-595 596 0
-710 -254 712 0
-1048 -255 1050 0
-793 797 0
-309 730 0
-577 -183 578 0
-2003 2004 0
-715 716 0
-1823 -244 0
-418 -14 420 0
-235 1024 0
-54 53 0
-1069 80 1070 0
-1677 -190 0
-139 1815 0
-982 71 984 0
-1521 116 1522 0
90 1229 0
-1686 -128 1688 0
-134 1750 0
-1015 -214 0
-1780 1789 0
-337 338 0
-87 1187 0
-80 1083 0
-1843 1849 0
-919 922 0
-82 1122 0
-238 237 0
-203 -71 0
-1183 -87 1185 0
-251 -111 0
-457 458 0
-159 1958 0
87 1196 0
-1209 268 1210 0
-1422 -108 0
-1365 1366 0
-1784 1791 0
-814 306 0
-860 864 0
2 334 0
-1005 215 1007 0
-27 536 0
-776 56 777 0
88 1197 0
-122 1616 0
-1421 -107 0
-1298 204 1299 0
-641 642 0
-1222 -268 1223 0
-332 0
-1801 242 1803 0
-462 464 0
-1408 1409 0
-1794 138 1796 0
-205 -103 0
-94 1305 0
-1393 -189 0
-307 -151 0
-105 1412 0
-89 1240 0
-328 -327 -326 -325 -102 -101 0
-810 58 811 0
-1958 -160 1960 0
-1996 1998 0
-1235 292 1237 0
-211 0
-53 784 0
-1096 296 1098 0
-46 680 0
-1519 116 0
-1289 95 1291 0
-1607 257 1608 0
-1217 -267 1219 0
79 1089 0
-1740 136 1741 0
-1150 1151 0
-1413 1415 0
-1305 -95 1307 0
-335 168 0
121 1580 0
-1309 -203 1311 0
-188 187 0
-344 348 0
-924 -227 0
-1951 161 1953 0
-1690 -130 1691 0
48 692 0
-1475 1476 0
-1032 255 1034 0
70 976 0
-1150 -84 1152 0
-1765 137 1767 0
-693 694 0
-1931 1933 0
-1033 1034 0
-88 1213 0
-1754 -193 1756 0
-221 540 0
-181 576 0
-676 225 0
-1800 1801 0
-1652 -287 0
-1416 1418 0
-1295 1299 0
-1020 -74 0
-1480 1482 0
110 1462 0
-251 -121 0
-1555 176 0
-1774 218 1775 0
31 0
51 738 0
-852 184 0
-114 113 0
-1680 129 1682 0
-938 68 940 0
-597 -264 0
-1542 1543 0
-1494 271 0
-1037 1041 0
-1612 258 1613 0
11 409 0
-499 -167 501 0
-985 191 987 0
-88 1190 0
-858 863 0
-959 960 0
-1559 178 0
-1782 1790 0
-298 297 0
-376 9 378 0
-1809 -138 1811 0
-1726 1727 0
-1342 1344 0
-1605 1608 0
-438 439 0
-1221 1225 0
-66 948 0
-1800 241 1802 0
-779 783 0
-569 184 0
-305 -115 0
-1950 1955 0
-964 966 0
95 96 97 98 237 238 239 240 0
-40 39 0
-606 319 608 0
-800 56 802 0
-1476 -112 0
-1570 -119 0
-1009 -73 1011 0
273 0
-838 324 0
-160 159 0
-8 373 0
-1397 105 1399 0
-1288 94 1290 0
-1475 -111 0
-119 1588 0
-224 223 0
-1152 1153 0
-479 -296 0
-1167 87 1169 0
-1652 1653 0
-1351 1352 0
-1946 160 0
-513 198 515 0
-1121 -82 1123 0
-1576 120 1578 0
-1760 -193 1761 0
-113 1524 0
-478 -295 0
-1764 136 1766 0
84 1135 0
-1977 1978 0
5 347 0
-1492 1498 0
-689 690 0
-952 954 0
-1535 1536 0
-1541 330 0
-1293 1298 0
-1363 -100 1365 0
-1651 -287 1653 0
-1050 -256 0
139 1824 0
-1892 252 0
87 1176 0
-1918 1920 0
17 443 0
-819 -58 0
-1302 205 1303 0
-1379 328 0
-1768 138 0
-1860 1861 0
-386 -9 388 0
-1476 1478 0
-1739 1742 0
-1049 -255 0
140 1825 0
-694 696 0
-573 577 0
-1735 135 1737 0
-1198 1199 0
-1929 155 1931 0
-754 -53 756 0
-611 321 0
-743 275 745 0
-746 276 0
-1399 106 1401 0
-412 301 0
-37 593 0
-615 616 0
-1155 1160 0
-89 1220 0
-1602 1603 0
-1737 136 1739 0
-294 293 0
-305 -125 0
-1382 1383 0
-1440 -285 0
-543 30 545 0
-947 -66 949 0
-960 963 0
-1075 -79 1077 0
-1223 1227 0
-1262 -313 1264 0
79 1069 0
-493 169 0
47 671 0
-1766 137 1768 0
-638 45 640 0
-1027 76 1029 0
-1855 -262 0
-972 -313 974 0
-640 644 0
-146 0
-73 1020 0
-408 -282 0
-67 951 0
-36 35 0
-1265 1266 0
-933 -247 0
-1447 206 0
-847 -324 0
-991 -72 0
44 638 0
-407 -281 0
-1184 -88 1186 0
-932 -246 0
-220 219 0
-641 46 0
-486 -309 0
-1712 1714 0
-850 183 852 0
-785 792 0
-183 -43 0
-1990 308 0
-866 867 0
-1085 1088 0
11 0
80 1090 0
42 606 0
-1936 -154 1938 0
-143 1872 0
-706 -50 708 0
-1426 -252 0
-1503 -114 1505 0
-1012 1014 0
-1640 287 1641 0
-1806 242 1807 0
-88 87 0
-1958 1959 0
-91 1244 0
-283 -89 0
-68 968 0
-1140 227 0
-951 -68 952 0
-1024 -236 0
-1375 1376 0
-1978 1980 0
-1074 1075 0
-933 934 0
-272 271 0
-4 351 0
-428 432 0
103 1380 0
-793 -289 794 0
-627 171 628 0
-1674 -128 1676 0
-350 351 0
-1700 1701 0
-1215 1221 0
-774 289 0
-780 289 781 0
-18 452 0
197 340 0
-78 1075 0
-1120 326 0
-1725 332 0
-1296 96 1297 0
-14 13 0
-1350 -280 0
-120 1572 0
-1618 1626 0
-92 1262 0
-199 -33 0
-969 -311 971 0
-1940 -156 1942 0
-134 133 0
-553 558 0
-1000 1001 0
-616 618 0
-859 860 0
-558 -32 559 0
-198 197 0
-585 -212 0
-289 604 0
151 1922 0
-766 -277 767 0
-35 0
-1413 -215 0
-1325 1326 0
-338 339 0
-104 1409 0
-584 -211 0
22 465 0
139 1804 0
37 38 39 40 263 264 265 266 0
-15 434 0
-742 743 0
-1401 215 1403 0
-1810 -139 1812 0
-1951 1952 0
-1446 1450 0
-1145 1149 0
-1508 1511 0
-950 -68 0
-463 465 0
-655 -46 657 0
-281 -53 0
-405 406 0
-1918 -152 1919 0
-621 44 623 0
-927 -228 0
-245 -51 0
-989 992 0
125 1654 0
-1634 1636 0
-278 1349 0
-1367 -102 1369 0
-1481 -240 1482 0
-1877 1878 0
-1576 1577 0
-589 590 0
-183 863 0
91 1252 0
-1453 -205 1455 0
-1881 -146 1883 0
-716 309 718 0
-1435 1436 0
-268 267 0
243 0
18 444 0
-166 0
-30 553 0
-192 1574 0
-332 331 0
-815 -56 817 0
-1118 325 0
-1166 86 1168 0
-1330 100 1332 0
-1472 242 0
-1555 1556 0
-1752 -136 1754 0
-1816 -241 1817 0
-1368 -297 1370 0
-939 68 941 0
-1255 1259 0
-1619 1620 0
-512 197 514 0
-871 876 0
55 776 0
-1364 -101 1366 0
-10 9 0
-86 1182 0
-1531 -299 1532 0
-74 73 0
-1149 230 0
-1672 189 0
-1944 1945 0
-656 657 0
-811 303 812 0
-1502 1503 0
-754 759 0
-1118 1120 0
220 0
-194 193 0
-197 533 0
-1301 204 1302 0
-1244 1246 0
-1645 -126 1647 0
-1924 318 0
-530 -197 531 0
-1686 1687 0
-253 -37 0
-1307 -96 1309 0
-918 921 0
-903 225 905 0
-1734 134 1736 0
-1014 -213 1015 0
-1436 -283 1438 0
-821 -58 822 0
-1192 -249 0
-1394 -189 1395 0
-62 61 0
-582 583 0
-1569 1570 0
-1448 1451 0
-63 919 0
197 0
-372 -245 0
-120 119 0
-1669 -318 0
-1831 1835 0
-339 197 0
-974 -314 0
-1675 -189 1677 0
-246 245 0
-1753 1754 0
-1460 -208 0
-1830 259 0
-778 290 779 0
-1674 1675 0
-1873 1874 0
-1232 1233 0
-727 731 0
-65 930 0
-1091 1092 0
-1431 1432 0
-110 1453 0
-45 679 0
-1334 278 1336 0
-320 0
-528 531 0
-1190 -247 1191 0
136 1743 0
-508 509 0
-364 245 366 0
-1436 1439 0
-1449 206 1450 0
-1052 1056 0
-1776 218 1777 0
-1745 195 0
-648 651 0
-108 107 0
-1540 329 1541 0
-1615 1616 0
-104 1389 0
-853 856 0
-1226 -269 1227 0
-1879 231 0
-575 -183 0
-1357 1359 0
-1318 -205 1319 0
-1600 1601 0
-1940 1941 0
-75 1043 0
-1641 288 0
-1819 1822 0
-1991 -164 1993 0
-794 798 0
-1805 241 1806 0
-145 1881 0
-1911 293 1913 0
-1135 1142 0
-1647 -285 1649 0
-1925 1926 0
-466 254 0
-929 -65 0
-254 253 0
-1108 -296 0
-595 -40 0
-1658 316 1659 0
-1359 298 1360 0
-1682 1683 0
-1146 227 1147 0
-920 923 0
-900 901 0
153 1925 0
-928 -64 0
-619 -321 620 0
-1687 1690 0
-1194 -249 1195 0
-583 -210 0
154 1926 0
-1765 1770 0
-1866 1867 0
-1518 116 1520 0
254 701 0
-1787 1788 0
-349 222 0
-700 702 0
-698 254 0
-984 72 986 0
-582 -209 0
-1457 -207 0
-1223 -269 0
-469 -21 471 0
-946 268 0
-242 241 0
-661 666 0
56 801 0
-1191 -248 1192 0
-803 811 0
-1060 1069 0
-1749 1750 0
-295 -31 0
-967 968 0
-1933 1935 0
-773 289 775 0
-1812 1816 0
90 1208 0
-561 34 563 0
-1734 1735 0
-1894 -147 1896 0
-193 -127 0
35 36 37 38 233 234 235 236 0
59 848 0
-420 -319 0
-1068 283 0
-709 710 0
-771 56 773 0
24 481 0
-1267 -314 1268 0
-1554 1558 0
54 769 0
-870 62 872 0
313 1258 0
-1342 -100 0
-305 -67 0
-767 -278 0
-1259 315 1260 0
-1467 239 1469 0
-8 385 0
-1335 1336 0
-168 167 0
-951 953 0
-1609 257 1610 0
-1631 125 1633 0
-1639 287 0
-229 -109 0
-1596 1597 0
-509 28 511 0
-1841 -141 1843 0
-722 311 723 0
-1417 1419 0
-1296 1300 0
-83 1150 0
-1218 1219 0
177 0
-1349 -279 1350 0
-541 -223 0
-36 587 0
-1556 177 0
-151 1918 0
5 359 0
-853 185 0
-1985 1986 0
-2000 331 2002 0
-556 557 0
-618 -321 0
-1038 1042 0
-1402 1403 0
-755 756 0
-497 -26 499 0
-94 93 0
-1687 -129 1689 0
-1517 115 1519 0
-327 1548 0
-696 253 0
-760 763 0
-1343 1345 0
-1970 164 1972 0
81 1113 0
-1222 1226 0
-1964 -162 1965 0
-295 -41 0
-492 168 0
-659 665 0
-657 -199 659 0
-1063 80 1065 0
-1065 1066 0
-281 -21 0
-823 -304 0
-1284 1287 0
-365 245 0
-623 624 0
-522 527 0
-502 505 0
-1469 1470 0
-482 483 0
-496 170 0
-1551 118 1553 0
-129 1690 0
-1909 152 1911 0
-354 -6 0
-390 -10 391 0
-417 320 0
-501 -168 0
-907 227 0
-1124 -324 1126 0
-622 625 0
-1390 1391 0
-1609 1612 0
-1794 1795 0
-1988 307 1990 0
94 1289 0
-264 598 0
-365 366 0
-249 -97 0
-1851 1855 0
-1574 1575 0
-764 -277 0
-1852 -259 1853 0
-1278 176 0
-1914 1915 0
-1010 -73 0
-114 1525 0
159 1949 0
-1132 1133 0
-22 476 0
-910 226 911 0
-227 -73 0
-60 858 0
-1331 1332 0
-1966 -262 0
-1241 -91 1243 0
-748 54 749 0
-1100 298 0
-1097 296 1099 0
-1176 88 1177 0
-1644 -125 1646 0
-228 227 0
-1788 -219 0
-1706 -130 1708 0
-58 824 0
-1306 -95 1308 0
-1656 1657 0
-1919 1921 0
-1515 1516 0
-106 1421 0
-181 424 0
-1030 1036 0
-703 -48 705 0
-1719 329 1721 0
-733 734 0
-777 289 778 0
-186 1132 0
-1746 194 1747 0
-1787 -218 0
-873 202 0
-1578 121 0
298 1361 0
-1889 148 1891 0
-1840 1841 0
-1755 -193 1757 0
-998 73 1000 0
-302 -301 -14 -13 -12 -11 0
-1398 1399 0
-411 412 0
-674 676 0
-1114 323 1116 0
-893 897 0
-38 594 0
-1161 -229 0
-475 476 0
-1724 331 0
-1524 1525 0
-279 -107 0
-152 1920 0
137 1794 0
-109 1473 0
-281 -31 0
-736 737 0
123 1630 0
-1836 259 1837 0
-503 -168 504 0
-941 942 0
-1434 286 0
-820 823 0
-800 801 0
25 506 0
-1896 -148 0
-1081 1084 0
-1533 116 1535 0
-1708 1709 0
-1321 -97 0
-1203 1207 0
-533 -198 534 0
-1448 207 0
-225 925 0
-1125 1126 0
-478 479 0
4 339 0
-683 684 0
-272 1716 0
-1113 82 1115 0
-97 1339 0
-103 1408 0
-707 -50 709 0
-1247 -292 0
1 333 0
-862 -185 0
-889 -202 0
-685 -223 687 0
-1392 -188 1393 0
-454 -20 456 0
-1730 -330 1731 0
-142 141 0
-1029 77 1031 0
-624 626 0
-1109 -296 1110 0
-1707 -131 1709 0
-1570 1571 0
-607 319 609 0
-1325 -239 0
-649 200 650 0
-663 -199 664 0
-425 426 0
-549 32 550 0
-1391 1393 0
-374 -246 0
-130 1692 0
-326 325 0
-1398 105 1400 0
-1324 -238 0
-545 546 0
-517 197 518 0
-546 550 0
-882 -60 884 0
-918 -225 0
-1920 -293 1921 0
-609 610 0
-1191 1194 0
-1289 1296 0
-42 614 0
-1376 1377 0
-992 994 0
50 697 0
-68 67 0
-578 -184 0
-694 50 0
134 0
69 975 0
-1689 -130 0
-504 -169 505 0
-191 1573 0
-913 914 0
-997 73 999 0
-1054 -257 0
78 1060 0
-1064 281 1066 0
-1384 188 1386 0
-1022 -76 0
-1312 -96 1313 0
219 0
-471 472 0
-770 55 772 0
-1246 -291 1247 0
-1688 -129 0
-839 -58 841 0
-1697 132 1699 0
-788 -56 790 0
-874 878 0
-1238 1239 0
-597 598 0
-1258 314 1259 0
-233 -29 0
-1443 1444 0
75 1027 0
-1157 -228 0
-1339 -98 1341 0
-249 1424 0
-1630 124 1632 0
-73 1012 0
-1736 135 1738 0
-1224 -267 1225 0
-2005 2006 0
-1661 318 0
-1137 86 1139 0
-1704 1705 0
-744 275 746 0
-686 -224 688 0
60 867 0
-1177 247 1178 0
-598 -265 0
-1400 106 1402 0
-459 20 461 0
-1110 -297 0
-1768 1769 0
-1796 139 1798 0
-948 -67 950 0
-397 399 0
-1121 1122 0
-980 981 0
-1243 1245 0
-339 340 0
-484 -24 486 0
-803 58 805 0
-1231 92 1233 0
-1185 1186 0
122 1601 0
-1500 -112 1502 0
-538 539 0
-741 54 743 0
-1354 102 0
-1237 293 1239 0
-1868 -144 1869 0
-1098 297 1100 0
-1845 1850 0
-1291 96 1293 0
-523 524 0
-532 -199 0
-1218 -267 0
-347 6 348 0
-29 538 0
-829 -306 0
-202 201 0
301 413 0
-1387 190 0
-1290 1291 0
-1630 1631 0
-1509 1512 0
-1250 -293 1251 0
-1424 -250 0
-1489 1490 0
-848 849 0
-334 167 0
171 977 0
-464 466 0
-1105 1107 0
164 1984 0
-707 708 0
-1486 1495 0
-1047 1048 0
-287 -131 0
-878 201 879 0
-1636 285 1637 0
-692 49 694 0
-1635 1637 0
-34 580 0
-590 591 0
-1922 152 0
-1532 -300 0
-840 -321 842 0
-1853 -260 1854 0
-128 127 0
-1487 113 1489 0
-967 -68 969 0
-1890 251 1892 0
-393 10 395 0
-915 916 0
297 1359 0
-482 309 0
-876 202 877 0
-774 775 0
-1051 1055 0
-164 0
-401 -10 403 0
-961 311 0
-1993 -165 0
-103 1388 0
-312 311 0
-674 224 0
-1793 -220 0
-1881 1882 0
-587 -37 0
101 0
19 447 0
-904 225 906 0
-1099 1100 0
-1356 1358 0
-351 356 0
-24 485 0
-1673 190 0
-1348 -279 0
-1442 -286 0
-1748 196 0
-1482 1484 0
-678 226 0
-1424 1425 0
-1756 -194 1758 0
-802 57 804 0
-1623 1624 0
-778 782 0
-1895 -147 0
-841 842 0
113 1515 0
-620 -322 0
-174 173 0
99 1351 0
-74 1014 0
-1290 95 1292 0
-1563 -176 1565 0
-1501 1506 0
-961 962 0
127 1678 0
-1666 -316 1668 0
-1166 1167 0
-145 1893 0
-383 264 0
317 1924 0
-1065 281 1067 0
-562 181 564 0
-952 -265 0
-1903 150 0
-1844 -142 1846 0
-423 -181 0
-583 584 0
-405 -12 407 0
-806 303 808 0
-70 989 0
-1253 313 1255 0
-1107 1109 0
-1991 1992 0
-267 -77 0
43 637 0
-703 704 0
-1808 244 0
-1402 215 1404 0
-42 41 0
-1749 -134 1751 0
-1663 -315 1665 0
-667 46 669 0
-1831 260 0
-925 -226 926 0
-261 -147 0
-1952 1956 0
-1932 1934 0
-223 -35 0
-1874 1875 0
-586 587 0
-191 -83 0
-353 -6 355 0
-445 446 0
-117 1560 0
11 397 0
-1337 279 0
-656 -46 658 0
-1353 1354 0
-916 -64 918 0
-1212 1213 0
-1443 110 1445 0
-770 771 0
-1026 -238 0
-140 1841 0
-629 630 0
-1642 -124 1644 0
-308 307 0
-1921 -294 0
-567 182 568 0
96 1300 0
-7 384 0
-1537 1538 0
-564 182 566 0
-1095 1096 0
-1358 1360 0
-1494 1499 0
-1154 -86 1156 0
-76 1044 0
-1820 1823 0
-1548 -328 1549 0
-163 1979 0
-436 -17 438 0
-305 -91 0
-512 513 0
-1862 1863 0
32 0
-181 -25 0
-1331 100 1333 0
-1741 1744 0
-1667 -317 1669 0
-1279 1280 0
33 34 35 36 209 210 211 212 0
-27 527 0
-1156 -227 0
-1138 1139 0
-497 498 0
-123 1642 0
-1355 102 1356 0
-176 175 0
-357 -221 358 0
-1495 114 1496 0
-140 1818 0
-575 578 0
-1151 -85 1153 0
-1604 1605 0
-1867 1869 0
-1432 285 1434 0
-1463 1464 0
-1083 -281 1084 0
-689 -225 0
-681 682 0
-1561 1566 0
-596 -263 0
-1021 1022 0
104 1397 0
-768 54 770 0
-579 580 0
-1196 88 1198 0
-1297 203 1298 0
30 544 0
-1646 -126 1648 0
-865 -186 0
-1006 1007 0
-359 360 0
-432 209 433 0
-75 1022 0
-1084 1087 0
-191 -93 0
-231 -129 0
-71 992 0
-1046 -78 1048 0
-1729 1731 0
-642 645 0
