p cnf 1824 3471
-1823 -299 0
-102 101 0
-1483 -114 0
-206 -205 -144 -143 -142 -141 0
-1550 1553 0
-1001 -231 1002 0
-839 253 0
-1088 186 0
-633 -36 635 0
-967 67 0
-1088 1089 0
-1310 -187 0
-286 285 0
-1408 1413 0
-573 -266 0
-1714 1715 0
-812 -54 0
-523 -180 0
-909 181 911 0
-271 1204 0
-1773 225 1774 0
-1190 273 1191 0
-750 47 752 0
-1548 120 1549 0
-830 831 0
-588 593 0
-28 27 0
-805 200 807 0
-488 152 489 0
263 1668 0
-1225 158 0
287 0
-973 68 975 0
-1335 1338 0
-148 147 0
-241 -81 0
91 92 93 94 221 222 223 224 0
-212 211 0
143 0
-1781 1782 0
-493 494 0
-511 180 0
-3 321 0
-473 -24 475 0
-352 353 0
-255 -123 0
-1415 298 0
-143 1775 0
-557 32 559 0
-1558 1567 0
-1277 -95 1279 0
-322 -177 0
-480 289 0
-12 394 0
-1417 -295 1419 0
-593 -278 594 0
-193 -27 0
-1560 -120 1562 0
-475 -271 0
-1096 -77 1098 0
-881 884 0
-1040 257 1042 0
-752 48 754 0
-638 -217 640 0
-1539 -262 1540 0
-560 561 0
-930 -182 931 0
-559 265 561 0
-1160 261 1161 0
-67 988 0
-1043 258 1045 0
-1803 149 1805 0
-544 -249 0
-562 266 564 0
-149 1821 0
156 0
-1065 1068 0
-162 161 0
-3 334 0
-1129 -212 1131 0
-1228 90 1230 0
-728 195 0
-1527 1531 0
-1282 -242 0
-603 604 0
-1289 -243 1290 0
-1381 273 0
-160 1439 0
-282 281 0
-623 217 0
-1556 192 0
120 1573 0
-1676 276 0
-851 -252 0
-542 -30 544 0
-1410 1414 0
-423 427 0
-486 487 0
-905 912 0
-535 249 536 0
-628 632 0
-1423 -297 1424 0
-1737 -256 0
-345 346 0
-24 23 0
-1793 1798 0
-1253 1254 0
133 0
20 444 0
-1112 1113 0
-131 1703 0
-811 812 0
-150 149 0
-385 -10 387 0
-670 671 0
-549 552 0
-1054 -258 0
-1519 -116 1520 0
-86 1216 0
7 361 0
-208 207 0
37 649 0
-1304 -284 0
-1053 1055 0
203 1584 0
8 362 0
-710 -44 712 0
-412 413 0
-1762 1763 0
-1107 -186 1108 0
-1641 1644 0
-1309 -98 0
-1321 214 1323 0
72 1020 0
-197 -71 0
-1320 1321 0
-1199 1202 0
-1179 1180 0
-225 -133 0
-76 75 0
-596 597 0
-1151 84 1153 0
-475 478 0
-774 -227 0
-494 -152 496 0
-1545 120 1547 0
-1363 1364 0
-1104 -185 1105 0
-1062 1063 0
-1582 1585 0
97 1314 0
-185 1107 0
-1283 -96 1284 0
287 1740 0
-260 259 0
-1743 176 0
-479 480 0
-201 1248 0
-1172 -260 1173 0
98 1315 0
-1818 299 1820 0
-583 279 0
-605 606 0
-1623 -124 1624 0
-1214 296 0
-620 626 0
-1509 -114 1511 0
-1770 1772 0
-139 1753 0
-69 994 0
-2 1 0
-421 426 0
109 1446 0
-239 -55 0
-534 30 535 0
-1678 -129 1680 0
-122 121 0
277 584 0
-624 628 0
-667 -40 669 0
-733 196 0
-950 198 0
-988 989 0
189 1554 0
-847 848 0
-1361 255 0
-1647 -288 0
-1750 142 1751 0
-425 428 0
-1208 293 1210 0
-1755 1756 0
-102 1347 0
-408 16 409 0
-612 -36 0
-574 -266 575 0
-904 62 906 0
-1262 96 1264 0
-1371 1373 0
-429 -16 431 0
-1699 -299 0
-1766 206 0
-14 413 0
-52 795 0
-1575 1579 0
-197 -81 0
-651 652 0
-499 -154 0
-588 -277 590 0
82 1140 0
-1396 1401 0
-1113 1115 0
-610 -35 612 0
-961 -196 962 0
-524 28 526 0
-1804 150 1806 0
-1438 1440 0
-1681 1682 0
-1083 78 1085 0
-393 394 0
-693 -291 694 0
-1184 272 1186 0
-726 194 728 0
-136 135 0
-1137 241 0
-98 1330 0
-364 10 366 0
-256 255 0
-1757 -142 0
-512 -26 514 0
-30 567 0
282 1062 0
-1370 -254 0
-1387 273 1388 0
-902 903 0
-1768 1771 0
-518 520 0
-1482 -114 1484 0
-1384 1388 0
-1654 247 1655 0
283 1063 0
-1627 1630 0
138 1728 0
-696 43 698 0
-1748 1749 0
-339 342 0
-1768 145 1770 0
-319 320 0
-720 45 722 0
122 1603 0
-1004 291 1006 0
-202 1250 0
-1086 1087 0
209 970 0
-350 227 351 0
-550 -251 0
-785 786 0
-1305 1308 0
105 1407 0
-1467 1475 0
-1540 -263 1541 0
-800 54 802 0
-790 -51 792 0
-1621 -124 0
-768 -208 0
-515 -28 0
58 837 0
-182 181 0
-1411 1412 0
-1610 1611 0
-969 970 0
-1489 1492 0
-141 1759 0
-514 -27 0
90 0
-464 468 0
51 797 0
-828 829 0
-451 258 0
-503 28 505 0
-1600 -205 1601 0
-746 -194 747 0
-1432 162 0
-1591 -122 1593 0
39 679 0
-902 -167 0
-64 932 0
-452 -20 454 0
-1153 1154 0
-1173 1176 0
-109 1455 0
-769 771 0
-1564 -190 1566 0
-869 267 870 0
-342 -208 0
-1247 -202 0
-711 712 0
-1656 -126 1658 0
147 1789 0
-50 49 0
-1557 1558 0
211 0
-1363 -102 1365 0
-722 46 724 0
-1677 1678 0
-1589 -121 1591 0
-386 -11 388 0
-234 233 0
-400 -14 402 0
67 0
-1752 192 0
-10 386 0
-1662 1663 0
3 325 0
62 905 0
-958 961 0
-635 -37 637 0
-657 660 0
-1753 -140 1755 0
-637 638 0
-1482 1486 0
-440 20 0
-478 -272 0
-1275 -94 1277 0
-165 -41 0
-213 -81 0
-181 -49 0
-939 947 0
-1744 1745 0
-1797 -247 0
-1623 1626 0
-982 231 0
9 377 0
-96 95 0
-589 -277 591 0
-1788 247 0
-324 -178 0
15 420 0
-821 822 0
-880 -267 881 0
-547 -250 0
-317 -2 319 0
-1320 213 1322 0
-379 380 0
-999 -231 0
-103 1367 0
-961 964 0
-27 539 0
-71 1027 0
-1686 1691 0
-1721 -216 0
-1809 -148 1811 0
-110 1444 0
-641 645 0
-1301 -283 1303 0
-1571 -192 0
-320 322 0
-583 586 0
-462 467 0
-508 178 510 0
-65 957 0
49 50 169 170 0
-709 -43 711 0
-1029 1030 0
-942 195 944 0
-888 889 0
-1271 241 1272 0
76 1081 0
44 720 0
113 1494 0
-694 -292 0
-569 -32 0
-1382 274 0
-1796 1797 0
-98 1310 0
-271 -73 0
-367 368 0
-975 69 977 0
-665 674 0
-1213 1214 0
-474 -24 0
-46 45 0
-568 -31 0
-1072 1073 0
-404 14 406 0
-306 -151 308 0
-110 109 0
-233 1350 0
21 449 0
-92 1246 0
-1380 273 1382 0
-1408 295 1410 0
-1038 74 1040 0
-1613 233 1614 0
-669 676 0
-1100 -185 0
-230 229 0
-189 1313 0
-1397 1398 0
-372 374 0
-617 36 619 0
-111 1461 0
-955 956 0
-571 573 0
-834 837 0
-1315 1324 0
-1517 1518 0
-213 -91 0
-1261 95 1263 0
-1722 1723 0
-1816 -270 0
-713 -179 715 0
-587 -32 589 0
-1139 1140 0
-222 1257 0
-1259 1260 0
-1401 1405 0
-730 193 731 0
-837 840 0
-1464 1465 0
-696 699 0
-156 155 0
-11 393 0
-1546 120 0
-936 64 938 0
-1350 -234 0
-861 60 863 0
155 0
-60 882 0
-165 600 0
-1284 1288 0
-17 435 0
-1648 1649 0
-795 -185 796 0
-880 883 0
-836 252 0
-1349 -233 0
-1504 244 1505 0
-1788 1791 0
-277 395 0
-668 -40 670 0
-363 9 365 0
-1707 133 1709 0
158 1226 0
-1473 225 0
-685 686 0
211 972 0
-247 -135 0
-82 81 0
-1407 106 1409 0
-1311 1312 0
-1748 142 0
-529 249 531 0
-348 227 0
-889 892 0
95 1291 0
-695 42 697 0
-309 2 311 0
-1584 204 1585 0
104 1376 0
297 1691 0
96 1292 0
-1078 -171 0
-1194 1195 0
-1393 1394 0
-1252 1253 0
-487 153 0
-611 612 0
-835 251 836 0
-290 289 0
-505 177 507 0
-1481 -113 1483 0
-838 252 839 0
-610 613 0
-1048 -73 1050 0
289 0
-936 937 0
-877 -60 0
-1135 1136 0
-388 -12 0
-1603 123 1605 0
-1162 -82 1164 0
-1709 134 1711 0
-1364 -103 1366 0
-1186 273 0
-1261 1262 0
-1155 260 0
-1187 86 1188 0
-999 1002 0
-1339 1342 0
-203 -111 0
-1240 1241 0
-1264 241 1266 0
-1382 1386 0
-216 215 0
-707 -42 709 0
-1304 1305 0
-55 843 0
-1786 1790 0
-1494 114 1496 0
-882 885 0
-830 57 832 0
-862 863 0
-741 744 0
80 1116 0
-420 421 0
-403 -164 0
-1649 1652 0
-1238 203 0
-1245 1247 0
-225 -121 0
-358 -8 359 0
-402 -163 0
-1813 -150 1814 0
-1449 1453 0
-330 207 0
-1244 -92 1245 0
-744 747 0
-204 203 0
29 554 0
-1025 157 1026 0
-571 -265 0
-163 -25 0
-161 1705 0
-1465 113 1467 0
-257 -69 0
-84 1171 0
-1533 -116 1535 0
-129 1694 0
-770 -209 0
-261 -103 0
-470 -22 472 0
-797 52 799 0
-1148 1157 0
-1332 1336 0
-1696 1697 0
-1049 1050 0
279 0
-1645 -287 0
-1254 1255 0
-1416 -106 1418 0
-464 24 466 0
-1189 272 1190 0
-607 199 0
-1532 264 0
-731 194 732 0
-550 553 0
-245 -123 0
-1152 1159 0
135 0
-1594 1600 0
-791 792 0
-1054 1056 0
-130 129 0
-223 -99 0
-612 614 0
-1578 1581 0
-1252 -92 0
57 858 0
-740 -46 741 0
-1611 235 0
-1763 1764 0
-1223 88 0
-1688 298 1690 0
-1730 -136 1732 0
-655 658 0
-530 249 532 0
-995 998 0
-874 879 0
-975 976 0
-334 335 0
58 859 0
-1204 -272 1205 0
-832 58 0
-804 200 806 0
-1742 1743 0
-923 -64 925 0
-1300 1301 0
-94 1255 0
-858 859 0
-717 718 0
-934 -183 935 0
-56 55 0
-922 923 0
-149 1813 0
-1002 -232 0
-1504 1507 0
-1157 84 1158 0
-1113 80 0
-843 844 0
-108 1442 0
-1348 -232 0
-1689 1690 0
-921 -63 923 0
-1085 185 1087 0
71 1035 0
-1561 -120 1563 0
-223 1491 0
-1199 -271 1200 0
-1809 1810 0
-1097 -77 1099 0
-1347 -231 0
17 426 0
-140 1754 0
-1010 294 0
-1027 1028 0
-391 -265 392 0
-560 265 562 0
-1569 -190 1570 0
-1226 1227 0
-1789 148 1790 0
1 301 0
-1105 1108 0
-1734 -138 1736 0
-1062 283 0
-1272 242 1273 0
-538 252 0
-1298 285 1299 0
-1693 300 0
-689 -289 0
-9 373 0
-417 -193 419 0
-1030 -156 1032 0
-120 1588 0
125 0
-1814 1816 0
-726 732 0
-516 -28 517 0
-910 911 0
-1362 256 0
-1286 -243 0
-1188 271 1189 0
-1372 1374 0
-1269 242 1270 0
-231 1348 0
-867 872 0
-968 969 0
-327 328 0
-1027 -72 1029 0
-682 290 684 0
205 1766 0
-81 1143 0
-1633 285 1635 0
175 1743 0
-405 15 407 0
-929 933 0
-1293 1294 0
-1484 -223 0
-1172 1175 0
141 1750 0
94 1260 0
-851 852 0
-1114 1116 0
-190 189 0
-209 -53 0
-831 58 833 0
-1087 186 1089 0
128 1667 0
-914 918 0
-1723 137 1725 0
-1500 116 1501 0
-336 -5 338 0
-1035 1036 0
-394 395 0
-1219 1221 0
-442 238 0
-835 838 0
-1098 1102 0
-1325 213 1326 0
-378 11 380 0
-622 217 624 0
147 1801 0
-711 -44 713 0
-1266 242 0
-578 579 0
25 500 0
-1207 86 1209 0
-116 115 0
-652 40 654 0
-1345 1346 0
-1458 -112 1460 0
-1685 1686 0
-1357 253 1359 0
-1544 1545 0
-1550 190 0
79 0
144 1768 0
-519 521 0
-1708 133 1710 0
-150 0
-52 810 0
131 132 161 162 0
-484 151 486 0
-1232 92 1234 0
-300 299 0
-504 28 506 0
-911 182 0
-1165 1169 0
-1297 284 1298 0
-966 66 0
-294 0
-440 441 0
-703 705 0
-745 -195 0
-504 505 0
-1207 1208 0
-1333 -100 0
30 555 0
-104 103 0
236 0
-641 -38 642 0
-1181 86 1183 0
-1337 -214 0
-1490 1493 0
119 1572 0
-414 -15 416 0
237 661 0
-10 375 0
-387 388 0
-1386 275 0
-197 -89 0
-848 -251 850 0
-288 287 0
-110 1456 0
-770 772 0
-386 389 0
-1235 202 1237 0
-1716 1717 0
-1754 -141 1756 0
-879 -60 880 0
-1445 -184 0
-1263 96 1265 0
-1679 -129 1681 0
-52 0
-1756 1760 0
-1479 1480 0
-832 833 0
-1215 -86 1217 0
-527 535 0
-1464 112 1466 0
-104 1392 0
-30 29 0
-896 897 0
-37 664 0
-1524 116 1526 0
-1337 1340 0
127 1669 0
-531 537 0
-213 1341 0
-344 7 346 0
-1579 203 1580 0
-1697 -298 1699 0
-1783 1784 0
-433 434 0
-1805 150 1807 0
21 461 0
-605 36 607 0
102 1352 0
-816 818 0
-978 985 0
241 1138 0
-418 419 0
-104 1369 0
-406 15 0
-177 -13 0
-617 618 0
-1655 248 0
-1666 1667 0
-365 10 367 0
-1495 115 1497 0
-1352 103 1354 0
-1560 1568 0
-37 641 0
-132 1715 0
-727 194 0
-1376 105 1378 0
-962 965 0
-942 943 0
-301 302 0
-500 501 0
-642 646 0
-82 1163 0
-354 -7 356 0
-390 -265 0
-1453 197 1454 0
-1258 -224 0
-721 45 723 0
-825 826 0
-1005 291 1007 0
-164 163 0
-907 64 909 0
-367 249 0
70 1004 0
-1744 140 1746 0
139 1741 0
283 1297 0
-801 54 803 0
-1067 1069 0
-1234 201 1236 0
-1009 1010 0
-1050 -74 0
-372 -10 0
-592 -279 0
-898 -165 900 0
140 1742 0
-294 1221 0
-1292 283 1294 0
-1115 211 0
-955 -66 0
-1534 1539 0
-591 -278 0
-347 348 0
107 108 109 110 183 184 0
59 0
-1605 124 1607 0
-1725 138 0
-1294 284 1296 0
-650 655 0
-751 752 0
-1014 1016 0
-208 771 0
-529 536 0
-90 89 0
-32 588 0
-1119 213 0
-343 6 345 0
-1174 -260 1175 0
-672 673 0
-1717 1719 0
-1538 1541 0
-1417 1422 0
-430 435 0
-877 878 0
81 1139 0
-744 -194 745 0
-1076 1077 0
-692 694 0
-886 -269 887 0
-687 -40 689 0
-419 -194 0
-274 273 0
-6 353 0
-723 46 725 0
-44 735 0
-995 -229 996 0
-818 820 0
-1007 292 1009 0
-223 1258 0
-434 437 0
-1061 1062 0
-1581 1584 0
-414 415 0
-870 268 871 0
-1660 -246 1662 0
-84 1193 0
-619 620 0
156 1025 0
-810 -53 812 0
-1527 262 1529 0
-1608 233 1610 0
-1722 136 1724 0
-734 -44 736 0
-1178 1187 0
-1643 1645 0
-16 15 0
-78 1123 0
-582 278 0
-1169 -259 1170 0
-598 599 0
-1444 1445 0
-133 1718 0
-291 1015 0
-361 362 0
-1719 -215 0
157 0
-1605 1613 0
-586 280 0
-1769 1770 0
-1128 1129 0
-1114 80 1115 0
-906 63 908 0
211 1118 0
-1673 130 1674 0
149 1817 0
-1609 1615 0
-1069 1071 0
-1331 -99 1333 0
-544 547 0
-4 3 0
-50 790 0
-1511 1512 0
-1534 -261 1536 0
-123 1623 0
-925 -181 927 0
-1281 -241 0
-786 185 788 0
86 1208 0
-118 1558 0
-788 186 0
-577 -268 0
-1343 -216 0
-301 2 303 0
-1586 206 0
-77 1101 0
-990 991 0
-205 -131 0
-485 489 0
-1487 -224 0
-1715 1718 0
-193 746 0
-1403 -273 1404 0
139 1744 0
-415 -16 417 0
-541 -29 543 0
-1437 1439 0
-257 -57 0
-1394 1400 0
-591 592 0
-270 269 0
-432 436 0
-658 237 659 0
-1439 -161 1440 0
-988 -68 990 0
-1115 1117 0
-1136 240 0
-175 -131 0
-1680 -130 1682 0
-594 -279 595 0
-1577 1580 0
-433 -18 0
-1456 1461 0
-1398 1402 0
-1156 261 0
-474 475 0
-917 182 918 0
-1683 1684 0
-1729 256 0
-815 -199 816 0
-714 -180 716 0
-1020 155 1022 0
96 1271 0
-1148 83 1150 0
49 781 0
35 617 0
-799 800 0
-263 -123 0
-41 707 0
-138 137 0
-444 21 446 0
-428 218 0
47 48 227 228 229 230 0
-882 -267 883 0
-1425 1426 0
-852 -253 0
-702 180 0
-1246 1248 0
-489 153 490 0
-541 542 0
-1386 1390 0
-400 401 0
-1039 74 1041 0
-1366 1368 0
-640 -218 0
-229 777 0
-1565 -190 0
-526 527 0
-1620 -124 1622 0
-1340 -215 0
-1009 293 0
-925 930 0
-1465 1474 0
-1256 -222 0
-725 726 0
-1787 148 0
-64 63 0
-483 488 0
-1594 -204 1596 0
-1186 1191 0
-1351 102 1353 0
-277 593 0
-1249 1251 0
-130 1695 0
-1636 286 1638 0
-1092 186 1093 0
-1373 -255 1374 0
-184 183 0
-346 350 0
-1196 -86 0
-1469 1476 0
-1649 245 1651 0
-1595 -204 0
-248 247 0
-618 37 620 0
43 719 0
-1618 -123 1620 0
-1817 1818 0
17 438 0
281 0
-373 -10 374 0
-1108 -187 1109 0
-1234 1235 0
-1058 -260 0
-9 385 0
-1055 1057 0
-1695 1700 0
-408 410 0
-1516 1522 0
-1518 -245 0
137 0
-426 18 427 0
-1559 1560 0
-931 -183 0
-1418 1419 0
-916 181 917 0
-913 917 0
-1517 -244 0
-1585 205 1586 0
-1101 -78 1102 0
-1764 144 0
155 1023 0
85 1187 0
-1622 1625 0
-1604 123 1606 0
-1695 -297 1697 0
141 1762 0
-1629 -234 1630 0
-35 633 0
-150 1815 0
31 578 0
-1738 138 0
-1270 243 0
-329 6 0
-1776 -145 1778 0
-1510 -115 1512 0
-639 640 0
63 912 0
32 579 0
-1505 1508 0
-937 946 0
-1791 248 0
-1364 1367 0
-691 -290 692 0
-1759 -142 1760 0
-1043 1044 0
-113 1509 0
-1626 -233 1627 0
-1690 299 0
-1484 1487 0
-1747 1751 0
-366 249 368 0
-823 824 0
-915 183 0
-941 948 0
-1669 1670 0
-1184 1190 0
-1548 1551 0
-381 382 0
-1575 122 1577 0
235 0
-60 59 0
-1106 1109 0
-1091 185 1092 0
-1567 -120 1568 0
-53 821 0
-125 1656 0
-764 766 0
-97 1309 0
-124 123 0
-643 647 0
-271 -39 0
-1413 296 1414 0
157 1225 0
-841 253 842 0
-322 324 0
-1176 -262 0
-1307 -285 1308 0
-244 243 0
-1242 -91 0
-1643 -286 0
34 602 0
-1031 1032 0
-1551 1554 0
127 0
-890 891 0
-23 476 0
-1736 1737 0
-183 -71 0
-217 -27 0
103 1375 0
-307 308 0
-1488 -223 1489 0
-1493 -226 0
-288 -287 -138 -137 0
-951 -64 953 0
-1215 1216 0
-1079 -172 0
-326 331 0
-189 -109 0
-773 774 0
-978 229 980 0
108 1426 0
-1463 -198 0
-667 675 0
87 1223 0
-518 -177 519 0
73 1059 0
-103 1391 0
-170 169 0
-1183 271 1185 0
-96 1287 0
-197 -77 0
-1015 1017 0
-1226 159 0
-28 518 0
-1220 1222 0
-1376 1383 0
88 1224 0
-573 575 0
-836 839 0
-296 295 0
-394 -277 0
74 1060 0
-1300 -96 1302 0
-1342 -215 1343 0
-1803 1804 0
243 1506 0
-69 1011 0
-1547 189 0
-4 323 0
-285 -105 0
-1139 82 1141 0
-782 51 784 0
-1497 116 1499 0
169 1068 0
-108 1434 0
-1021 155 0
-1317 1325 0
-1141 1142 0
-1072 -76 1074 0
-1020 1023 0
-1658 -245 1660 0
-1808 270 0
-169 780 0
-38 37 0
-273 -95 0
-15 429 0
-558 559 0
-875 -59 877 0
-1374 -256 0
-31 570 0
-738 -46 0
-646 -218 647 0
-1466 1467 0
-1574 121 1576 0
-1472 224 0
-1665 1666 0
-231 -93 0
-1749 1752 0
-762 765 0
-222 221 0
-356 -8 0
10 378 0
-441 442 0
-704 706 0
-1499 243 0
-840 252 841 0
-1670 1673 0
-1286 1290 0
-643 -218 644 0
-1650 1651 0
-1529 1532 0
-1720 -215 1721 0
-922 -63 924 0
-992 -70 0
-857 -254 0
-292 0
-859 868 0
-146 1793 0
-183 -81 0
-105 1416 0
-772 -210 0
-258 1057 0
-1785 147 1787 0
-1240 -90 1242 0
-553 -252 0
-1383 106 1384 0
-221 -71 0
-1533 1534 0
-351 228 0
-565 268 0
-1412 1415 0
-169 -61 0
-1732 1733 0
-907 913 0
-84 83 0
-35 613 0
-339 -207 0
18 439 0
-809 810 0
-688 691 0
-30 548 0
-1279 -96 1281 0
-114 1488 0
-848 855 0
114 1495 0
19 440 0
-1275 1276 0
-1393 -105 1395 0
-891 893 0
-490 154 0
-1134 1135 0
-1450 112 0
28 525 0
-674 -40 675 0
-1667 263 0
-1724 137 0
-636 -38 638 0
-283 1306 0
-1459 1460 0
-38 665 0
-292 291 0
-1338 1341 0
-286 1646 0
-132 1704 0
-954 958 0
-1318 1319 0
-1718 -134 1719 0
-822 -55 0
-876 -60 878 0
-781 50 783 0
-1496 115 1498 0
-1523 -246 0
-549 -250 550 0
-797 798 0
-271 -59 0
-1016 -293 0
-634 -37 636 0
-34 33 0
-453 458 0
-817 819 0
-1060 1061 0
143 1764 0
-759 760 0
-1278 1284 0
-1725 1727 0
-98 97 0
-335 -5 337 0
-1200 1203 0
56 829 0
-996 -230 0
-892 166 893 0
-539 540 0
-1526 1527 0
-233 1629 0
-1090 78 1091 0
-1195 -86 1197 0
-1630 -235 1631 0
-218 217 0
-738 739 0
-1045 259 0
-1398 -274 0
-42 708 0
-894 167 895 0
-221 -81 0
-864 865 0
-1717 -134 0
-743 746 0
-169 -71 0
-1710 1711 0
-622 627 0
-986 231 987 0
-422 423 0
-1397 -273 0
-1562 -189 1564 0
-720 729 0
-1716 -133 0
-242 -241 -240 -239 -80 -79 0
-1651 1653 0
-368 250 0
-1015 -292 1016 0
-94 1276 0
-928 -64 929 0
-1068 1070 0
-1592 -203 1594 0
-846 854 0
-1801 148 1803 0
-144 143 0
-1637 287 1639 0
-1179 85 1181 0
-49 789 0
-1508 246 0
-1572 1573 0
-943 196 945 0
-1087 1093 0
-1451 1454 0
-810 813 0
-1330 1335 0
-1777 1778 0
-1516 -244 1518 0
-1636 1637 0
-381 12 383 0
205 0
-1197 -271 0
-1218 -294 0
-567 570 0
-476 -24 477 0
38 650 0
-1610 234 0
-359 -227 360 0
-849 -251 851 0
-76 1073 0
-1718 1720 0
-271 -69 0
-437 -218 0
-994 997 0
-1150 1158 0
-522 -179 523 0
-1314 1315 0
-1334 1337 0
-1221 -295 1222 0
126 1665 0
-685 291 0
-12 11 0
-532 533 0
93 1259 0
-1426 159 1428 0
-926 -181 0
-1418 -295 1420 0
-1745 141 1747 0
-1056 1058 0
-70 69 0
-412 -14 414 0
-1103 -186 0
170 1070 0
-510 179 0
-1152 259 1154 0
-1154 1160 0
-614 616 0
-1498 1499 0
-1276 1283 0
-964 -197 965 0
123 1632 0
-196 195 0
-1703 1704 0
-1794 -147 1796 0
44 701 0
-1503 1506 0
-1112 79 0
-1590 -122 1592 0
-1335 -100 1336 0
124 1633 0
-328 6 330 0
-1823 1824 0
-1306 -284 1307 0
-1041 1042 0
-277 -23 0
-1280 1285 0
-1381 1382 0
-1644 1646 0
-292 1017 0
-1303 -284 1305 0
-1388 274 1389 0
-599 600 0
-50 779 0
-1568 -189 1569 0
-278 277 0
-847 -58 849 0
-602 35 604 0
-985 230 986 0
-1317 100 1319 0
-1706 1707 0
146 1773 0
-58 57 0
-994 -70 995 0
-924 925 0
-1565 1566 0
-1061 282 0
-1323 1328 0
143 1767 0
-783 784 0
-545 -30 546 0
-865 268 867 0
159 0
-20 19 0
-1671 129 0
-38 645 0
-1385 1389 0
-83 1168 0
-1448 1449 0
-203 -97 0
-971 211 0
-666 667 0
-1085 1092 0
-1210 294 1212 0
-545 548 0
-703 180 704 0
-1228 1229 0
-1250 -203 1251 0
-756 208 758 0
-477 -271 478 0
-611 -35 0
-1433 1434 0
66 967 0
-54 822 0
-1285 -242 1286 0
-1698 -298 0
-673 -239 0
-928 932 0
-881 -268 0
280 0
-1632 1633 0
-1810 -149 1812 0
-908 64 910 0
61 888 0
-46 762 0
-1694 -130 1696 0
67 968 0
-283 -85 0
-1467 114 1469 0
-1617 1618 0
-185 -71 0
-970 971 0
136 0
-1795 -148 1797 0
-8 7 0
-1758 -191 0
-325 4 327 0
-253 1371 0
-1790 247 1791 0
-1293 283 1295 0
83 1177 0
-664 -38 666 0
-72 71 0
172 0
-1327 215 1328 0
-1295 1296 0
132 1707 0
118 1543 0
-584 278 585 0
-751 47 753 0
-1116 1118 0
-1359 1360 0
-192 191 0
84 1178 0
-497 -152 498 0
-613 -36 614 0
-57 873 0
-1499 1502 0
-776 777 0
-1587 -120 1589 0
-778 -50 0
-1125 -80 1127 0
-251 -39 0
-1037 1038 0
-1242 1243 0
-51 809 0
-737 741 0
-353 358 0
-454 455 0
239 1136 0
-1462 -197 1463 0
89 1228 0
-555 31 557 0
-1241 1244 0
5 331 0
-580 581 0
-735 -45 737 0
240 1137 0
-779 780 0
-1741 140 0
-658 661 0
-118 117 0
-106 1403 0
-340 -6 341 0
-614 -199 0
-392 -266 0
-1546 1547 0
-1688 1692 0
-456 -22 0
-1367 1369 0
-891 166 0
-8 370 0
-753 48 755 0
-446 22 448 0
-1478 226 0
-1237 203 1239 0
72 1036 0
-827 -222 0
-868 60 869 0
-1429 1430 0
-113 1485 0
-28 540 0
-22 471 0
-1167 1170 0
-173 -107 0
-287 -129 0
-308 -152 0
-575 -267 0
-506 507 0
123 1612 0
-1466 113 1468 0
-1332 -100 1334 0
-44 43 0
69 1003 0
-1 305 0
-1472 1473 0
-1792 -146 1794 0
-980 230 982 0
-1535 -261 1537 0
-349 8 350 0
-346 8 348 0
-513 -27 515 0
-253 -95 0
-1249 -203 0
-1205 -273 1206 0
115 1500 0
-780 -170 0
-1355 1356 0
-231 -71 0
-1497 1501 0
-1000 -230 1001 0
-252 251 0
-779 -169 0
-1552 190 1553 0
-254 1373 0
179 703 0
-1065 169 1067 0
-941 195 943 0
139 0
-1166 -84 0
-898 899 0
-912 64 913 0
-757 758 0
-1469 223 1471 0
-1097 1098 0
-373 375 0
-1109 -188 0
-315 316 0
-393 -12 0
-36 634 0
-813 -54 814 0
-1419 -296 1421 0
-1223 1224 0
-201 -71 0
-1178 85 1180 0
-1102 1105 0
-1451 197 0
-1082 1083 0
-698 700 0
53 54 55 56 219 220 221 222 0
-1281 1282 0
-29 566 0
-669 -237 671 0
-1807 269 0
-1149 83 1151 0
-178 177 0
-1407 1408 0
-1023 1025 0
26 501 0
-114 1510 0
-1606 1607 0
-1485 1488 0
-1421 -297 0
-501 27 503 0
-824 825 0
-980 986 0
-1164 1165 0
-4 335 0
83 1157 0
-1591 1592 0
125 1648 0
-944 945 0
-1810 1813 0
-267 -39 0
-1149 1150 0
-126 1657 0
-765 767 0
-921 928 0
-1285 1289 0
-644 648 0
-1348 1349 0
-1143 -82 1145 0
237 0
-57 853 0
-566 567 0
-375 -249 376 0
-1031 -156 1033 0
-1685 130 1687 0
-1333 1334 0
-1502 244 0
-231 -81 0
-1552 1555 0
-444 449 0
68 969 0
-679 40 681 0
-1323 215 0
-628 219 0
-1515 -243 1517 0
-834 58 835 0
-1294 1298 0
-885 -268 886 0
-1658 1659 0
-1011 1012 0
-1086 185 1088 0
-1551 189 1552 0
-448 451 0
-1209 293 1211 0
-783 51 785 0
-691 693 0
-633 634 0
-201 -81 0
-1117 212 0
-769 -208 770 0
-1444 -183 0
-753 754 0
-1016 1018 0
-1536 1540 0
-1616 236 0
-92 91 0
-1227 160 0
-574 576 0
-411 194 0
-1078 1079 0
-935 -184 0
-77 1122 0
-957 960 0
-276 275 0
-281 -69 0
-1419 1423 0
-495 496 0
-269 -95 0
-354 355 0
-171 -81 0
-1545 1549 0
-1302 -283 1304 0
-1356 253 1358 0
-480 481 0
-237 -27 0
-636 642 0
22 462 0
-243 -101 0
-483 151 485 0
-679 680 0
-1777 -145 1779 0
-18 17 0
-1587 1588 0
-53 813 0
-1511 -115 1513 0
-1358 254 1360 0
-1211 294 1213 0
159 1227 0
-1446 1447 0
-1145 1146 0
165 892 0
-1644 -286 1645 0
-363 364 0
-883 886 0
-1209 1210 0
-1521 -244 1522 0
-729 46 730 0
-562 563 0
-675 -237 676 0
-1470 223 1472 0
-466 271 0
-630 218 631 0
-1266 1270 0
-537 251 538 0
-207 -27 0
-1329 1330 0
-1607 1614 0
-825 -220 0
-226 225 0
-446 450 0
-824 -219 0
-1513 1514 0
-1611 1616 0
-829 834 0
60 0
-1596 -205 0
-585 279 586 0
-1668 264 0
-371 -9 0
-1596 1601 0
-1246 -201 1247 0
-762 -47 764 0
-461 22 463 0
-420 16 422 0
-1793 -147 1795 0
-952 -65 954 0
-1255 1256 0
-496 -153 0
-660 239 0
-889 165 891 0
41 695 0
-152 151 0
13 404 0
113 1474 0
-979 229 981 0
-356 357 0
-613 615 0
-58 874 0
-604 36 606 0
-634 641 0
-1400 1404 0
-1764 1765 0
-127 1677 0
-1522 -245 1523 0
-1322 1323 0
-1372 -255 0
73 0
-1201 1204 0
-1181 1182 0
-95 1300 0
-355 -8 357 0
-1507 245 1508 0
-625 38 626 0
-638 643 0
-78 77 0
-314 177 316 0
-49 778 0
-1353 103 1355 0
-647 -219 648 0
-183 -89 0
-700 179 0
-1264 1269 0
-159 1437 0
-1064 1065 0
-705 181 706 0
-1060 281 0
-759 209 0
-1248 1250 0
-262 261 0
-221 -79 0
-1525 1530 0
-543 544 0
212 1120 0
-402 403 0
-704 181 0
-607 608 0
-866 268 0
-1772 1774 0
-1048 1051 0
-506 177 508 0
-727 728 0
-897 -165 899 0
-1771 146 1772 0
-407 409 0
-1243 -92 0
-1338 -213 1339 0
-70 997 0
-940 66 942 0
171 0
-233 -113 0
-811 -53 0
-1059 74 0
-1134 80 0
-45 761 0
-790 793 0
-250 249 0
-1757 1758 0
-348 351 0
-202 0
-1192 -84 1194 0
-435 -18 436 0
-1236 1237 0
-82 1144 0
-1441 1442 0
-238 -237 -20 -19 -18 -17 0
-828 56 830 0
-1193 1198 0
-653 654 0
-1036 73 1038 0
75 1064 0
107 1425 0
-1640 1641 0
-1409 295 1411 0
-637 -38 639 0
-1014 -292 0
-1420 1421 0
-998 1001 0
-1518 1523 0
-21 458 0
-1817 150 1819 0
-473 477 0
-395 -278 0
-1013 -291 0
-1812 -150 0
-1607 233 1609 0
-1624 1627 0
-471 -23 473 0
-1447 111 1449 0
38 629 0
-369 -8 371 0
-1162 1163 0
-39 674 0
-740 743 0
-1424 -298 0
-200 199 0
-1609 234 1611 0
-649 38 651 0
-1733 -138 1735 0
-258 257 0
-1774 226 0
121 1602 0
-618 625 0
-1045 1046 0
-321 323 0
-1066 169 0
-904 905 0
-862 60 864 0
-1468 114 1470 0
-520 522 0
-1672 130 0
-1402 -275 0
-793 -52 794 0
-972 212 0
-1671 1672 0
-7 369 0
-1120 213 1121 0
-946 66 947 0
5 343 0
-655 40 656 0
-1084 78 1086 0
-1563 -189 1565 0
-1731 -137 1733 0
-447 448 0
-684 291 686 0
-787 788 0
-55 823 0
-1050 1052 0
-1229 91 1231 0
-126 125 0
-871 269 872 0
17 0
-124 1626 0
-1754 1759 0
-1712 215 0
33 34 163 164 165 166 0
-39 687 0
2 310 0
237 442 0
-1554 190 1555 0
282 0
-388 390 0
-78 1104 0
-989 -69 991 0
-971 972 0
-1127 -211 1129 0
-1691 298 1692 0
-802 199 804 0
-792 794 0
-1329 -98 1331 0
-1684 -276 0
-1758 1761 0
-536 250 537 0
-1738 1739 0
63 936 0
-309 310 0
-572 574 0
-1077 -171 1079 0
-1155 1156 0
-514 515 0
-1068 170 1069 0
-1683 -275 0
29 534 0
14 405 0
-713 714 0
-1714 -132 1716 0
-592 595 0
-1163 -83 1165 0
-52 51 0
-471 476 0
-1621 1622 0
-1 317 0
-1500 1503 0
-1806 269 1808 0
-380 12 382 0
-718 -182 0
-1699 1702 0
148 1802 0
-659 238 660 0
-172 171 0
-1446 110 1448 0
-699 44 700 0
-1175 -261 1176 0
-101 1363 0
-1682 -275 1684 0
-236 235 0
-1805 1806 0
-1664 1665 0
-1710 134 1712 0
-326 5 328 0
-527 30 529 0
-1101 1104 0
-1562 1569 0
-659 662 0
-1102 -185 1103 0
55 828 0
23 467 0
-1022 1024 0
-492 -151 494 0
-191 -131 0
-1566 1571 0
-532 250 0
-688 -289 690 0
-332 207 333 0
-724 193 726 0
-977 70 979 0
-443 444 0
-945 197 0
-846 -58 848 0
-160 -159 -158 -157 -88 -87 0
-1168 1171 0
-1389 275 1390 0
-1813 1815 0
-755 207 757 0
-901 -167 903 0
-1672 1674 0
-701 179 702 0
-1401 -274 1402 0
-347 8 0
-1220 -295 0
-90 1241 0
-269 -73 0
-510 511 0
-652 656 0
-905 63 907 0
-909 914 0
-369 370 0
-1318 100 1320 0
-1371 -254 1372 0
-48 47 0
-932 -181 933 0
-1797 1800 0
-654 237 0
-398 163 0
-1136 1137 0
128 1670 0
-249 551 0
-112 111 0
-749 46 751 0
-515 517 0
-232 231 0
-374 376 0
-1340 1343 0
-1369 -253 1370 0
-1161 262 0
-1019 1020 0
-176 -175 -140 -139 0
-1724 1725 0
-34 597 0
-335 340 0
-699 701 0
-1126 -80 1128 0
-1475 223 1476 0
-914 182 915 0
-1577 203 0
-554 30 556 0
-1723 1726 0
-578 32 580 0
-1301 1306 0
-1564 1570 0
-761 762 0
-1024 1026 0
-121 1617 0
-1145 -167 0
-100 99 0
-1486 1489 0
-167 -71 0
-96 1301 0
-75 1095 0
-229 1000 0
-1528 1529 0
-158 157 0
-370 -9 372 0
-957 -66 958 0
118 0
-1257 -223 0
-702 704 0
-843 -56 845 0
-581 585 0
-284 283 0
-269 -83 0
-1233 201 1235 0
-766 768 0
-86 1201 0
-1712 1713 0
11 12 277 278 0
-374 -249 0
-760 210 0
-1159 260 1160 0
-1049 -73 0
239 0
-687 688 0
-29 545 0
-26 25 0
-1428 160 1430 0
-1595 1596 0
-75 1072 0
65 966 0
-231 -79 0
-984 229 985 0
-146 145 0
-1795 1799 0
-764 -48 0
-345 7 347 0
-210 209 0
-1779 1780 0
-429 430 0
-1700 -298 1701 0
-1638 1639 0
-207 -15 0
-1082 77 1084 0
-1216 1219 0
-683 290 685 0
-1196 1197 0
-1732 -137 1734 0
-812 814 0
-418 -193 0
-500 26 502 0
131 1706 0
-937 65 939 0
-1458 1462 0
-741 -193 742 0
-883 -268 884 0
-1598 -203 1599 0
-1531 263 1532 0
-1650 245 0
151 488 0
-938 939 0
-958 -195 959 0
-663 240 0
82 1148 0
-1657 -245 1659 0
-719 44 721 0
-1263 1264 0
-1122 1123 0
-899 -166 901 0
-305 -2 307 0
-579 584 0
-601 602 0
16 421 0
-280 279 0
-970 210 0
-447 22 0
-580 277 582 0
-1005 1006 0
-1378 106 1380 0
-884 887 0
-177 520 0
150 1818 0
-615 -199 616 0
-1158 259 1159 0
-1194 -85 1196 0
-1648 126 1650 0
-502 27 504 0
-484 485 0
-1267 1271 0
146 1784 0
-315 177 0
-626 630 0
-526 29 528 0
-343 344 0
-1247 1249 0
-303 151 0
-22 21 0
-86 85 0
-115 1519 0
-1471 1477 0
-668 669 0
-195 -51 0
-1622 -233 0
-547 550 0
-1736 -255 0
-206 205 0
140 1745 0
-63 928 0
-221 -67 0
-670 -237 672 0
-121 1597 0
-1698 1699 0
-1130 -212 1132 0
-1735 -255 1737 0
-1796 -148 0
-1254 -94 0
-361 8 363 0
-976 70 978 0
-31 587 0
-818 -201 0
-1256 1257 0
-1177 1178 0
-793 795 0
-1530 262 1531 0
-1460 1463 0
-147 1809 0
-269 -103 0
-1614 234 1615 0
-933 -182 934 0
-132 131 0
-43 734 0
-1361 1362 0
50 782 0
-1580 1583 0
-1549 189 1550 0
36 618 0
-83 1192 0
-809 -52 811 0
-1765 1766 0
-778 779 0
-128 1678 0
-997 1000 0
-336 337 0
-1784 1789 0
-570 -32 571 0
-761 -46 763 0
65 946 0
-890 165 0
-1302 1303 0
-1641 -285 1643 0
-1558 -119 1560 0
-987 232 0
130 1686 0
-572 -265 573 0
-1319 213 1321 0
-639 -217 0
-21 470 0
-660 663 0
-111 1479 0
-845 846 0
-1255 -221 0
110 1447 0
-100 1345 0
-1377 105 1379 0
-697 43 0
-676 -238 677 0
-178 522 0
-867 269 0
-1780 -225 1782 0
-416 -16 418 0
-1069 171 0
-1811 1812 0
-1690 1693 0
-289 691 0
-844 -57 846 0
-1457 -111 1459 0
-620 38 622 0
121 1578 0
-1313 -190 0
-117 1557 0
-587 588 0
-195 963 0
-466 469 0
-1169 1172 0
-1588 1597 0
-266 265 0
-1346 -102 0
-1694 1695 0
-763 -47 0
-1222 -296 0
-1471 224 1473 0
-310 3 312 0
-470 471 0
-1284 -241 1285 0
-1436 1438 0
173 0
-631 219 632 0
-329 330 0
-1105 -186 1106 0
-1679 1680 0
-1057 -259 1058 0
-823 -56 0
-1052 -257 0
-1098 -78 1100 0
-715 -180 717 0
-1200 -272 0
-1296 285 0
-200 0
-193 -33 0
-1701 -299 1702 0
-953 -65 955 0
-1378 1384 0
-1606 124 1608 0
-338 -6 0
-673 678 0
-1379 106 1381 0
-1055 -258 1056 0
-979 980 0
-543 -30 0
-73 1051 0
-1661 -247 1663 0
-1319 1326 0
-1219 -294 1220 0
-1746 1747 0
-396 397 0
-1454 198 0
-1625 1628 0
-7 358 0
-1802 149 1804 0
-1140 167 1142 0
-561 266 563 0
-317 318 0
-45 740 0
-1273 243 1274 0
-677 -239 678 0
-85 1198 0
-721 722 0
-1506 244 1507 0
-1525 261 1527 0
-1081 1090 0
-739 -193 0
-1260 1267 0
-1347 1348 0
-1583 205 0
-180 179 0
42 0
-253 -71 0
-1686 297 1688 0
-16 430 0
-1608 1609 0
-521 523 0
-228 776 0
-1487 1490 0
115 1524 0
-1619 -123 1621 0
-861 869 0
-1230 1231 0
-1089 187 0
-878 -267 0
-968 68 0
-1792 1793 0
-1528 262 0
-1505 245 0
-1713 216 0
-2 306 0
23 479 0
-1702 -300 0
-568 569 0
-665 -39 667 0
-1434 1437 0
-826 -221 0
-40 688 0
-1590 1598 0
-1726 138 1727 0
-1044 259 1046 0
-106 1417 0
-389 391 0
-320 -4 0
-1628 -235 0
-106 105 0
19 0
97 98 187 188 189 190 0
24 480 0
-579 277 581 0
-1292 1297 0
-798 53 800 0
-1739 1740 0
-319 -3 0
-330 333 0
-951 952 0
-91 1252 0
-671 677 0
-600 -166 0
-453 -21 455 0
-1399 -106 1400 0
-956 959 0
-1296 1299 0
-635 636 0
-1481 1482 0
-438 18 0
-1035 72 1037 0
180 705 0
-485 152 487 0
-32 31 0
-924 -64 926 0
-1268 241 1269 0
43 699 0
-102 1364 0
-144 1776 0
-1756 -142 1758 0
-839 842 0
-1191 274 0
-455 459 0
-12 391 0
-680 289 682 0
-531 250 533 0
-253 -81 0
-377 378 0
-74 1053 0
-777 -230 0
-1578 122 1579 0
-46 743 0
-1785 1786 0
-1543 1548 0
-576 -267 577 0
-410 193 411 0
-1003 1004 0
117 0
145 1771 0
-1489 -224 1490 0
-1448 111 1450 0
-68 989 0
-1689 298 0
-240 239 0
153 0
-445 21 447 0
-596 -34 0
-1597 -122 1598 0
-1547 1550 0
-459 -257 460 0
-722 730 0
-533 251 0
-590 -278 592 0
-469 272 0
-863 870 0
-509 179 511 0
-1046 260 0
-318 -3 320 0
-1536 -262 1538 0
-303 304 0
-860 59 862 0
-1824 -300 0
-1167 -259 0
-1324 100 1325 0
-1211 1212 0
-1670 129 1672 0
-1625 -234 0
-463 23 465 0
-1290 -244 0
126 1649 0
-1673 1675 0
-1406 -276 0
-179 -33 0
-1064 76 1066 0
-62 897 0
-135 1730 0
-166 165 0
-1395 1396 0
-1652 1654 0
-1706 132 1708 0
20 441 0
-1230 91 1232 0
-1431 161 0
-953 954 0
-569 571 0
-1344 -100 0
117 1542 0
-743 -193 744 0
14 397 0
-794 -185 0
-1245 -201 0
-200 819 0
-1128 -211 1130 0
-619 37 621 0
-1137 1138 0
-821 -54 0
-695 696 0
251 840 0
-261 -95 0
-1206 -274 0
-1106 -187 0
-554 555 0
-1257 1258 0
-785 52 787 0
-820 -202 0
-1399 1403 0
-1474 114 1475 0
-1719 1721 0
-817 -200 818 0
-716 -181 718 0
-379 11 381 0
-239 -71 0
-1400 -273 1401 0
-154 153 0
-686 292 0
-1663 -248 0
-1692 299 1693 0
-1164 -83 1166 0
-546 -249 547 0
-47 773 0
129 1673 0
-837 251 838 0
-163 598 0
-1282 1286 0
-1739 287 0
-1662 -247 0
-266 0
-878 881 0
-1666 128 0
-494 498 0
-416 417 0
-621 622 0
-1201 -271 1202 0
-1203 1206 0
-1183 1184 0
-76 1096 0
-197 -97 0
-1314 98 1316 0
-1819 299 0
-1144 -167 1146 0
-965 -198 0
-80 79 0
-805 806 0
-1771 1773 0
166 894 0
-1066 1067 0
-1821 -150 1823 0
111 1452 0
-264 263 0
-436 -217 437 0
-1130 1131 0
-625 629 0
-564 267 0
25 482 0
-36 615 0
-1391 1392 0
-884 -269 0
-1760 -191 1761 0
-290 -289 -24 -23 0
-1455 1456 0
241 0
-1217 -293 0
-1755 -141 1757 0
-546 549 0
-207 769 0
-6 5 0
-1133 -214 0
-1675 275 1676 0
-1749 191 0
-1538 -263 0
1 309 0
-1008 293 1010 0
-409 411 0
-199 -45 0
19 443 0
-1012 1015 0
-1203 -273 0
-992 993 0
-51 793 0
-1132 -213 0
246 1654 0
-1747 142 1749 0
-1041 257 1043 0
-813 815 0
-1537 -262 0
-1452 112 1453 0
-1154 260 1156 0
-1305 -285 0
-1449 112 1451 0
-977 978 0
-1486 -223 1487 0
16 410 0
-974 983 0
-19 452 0
-875 876 0
-1677 -128 1679 0
-214 213 0
-734 735 0
-1770 146 0
-651 39 653 0
-876 880 0
-1198 -86 1199 0
-1651 246 0
-492 497 0
-1582 204 1583 0
-201 -77 0
-1642 1643 0
-1778 -146 1780 0
-860 861 0
-1117 1119 0
-382 265 384 0
-739 742 0
-1138 242 0
-355 359 0
-719 720 0
-1059 1060 0
-496 499 0
-269 -127 0
-913 181 914 0
-775 -228 0
261 1530 0
-792 -52 0
-229 -55 0
-461 462 0
-960 -195 961 0
-801 802 0
-1603 1612 0
-64 952 0
-140 139 0
-850 -252 852 0
-1593 -203 1595 0
-791 -51 0
99 1324 0
-1704 -161 0
-1427 1428 0
-1566 -191 0
-1126 1127 0
-1268 1272 0
-758 209 760 0
-316 178 0
-178 0
-1681 -130 1683 0
-304 152 0
-1617 -122 1619 0
-906 907 0
-1287 -241 1288 0
-672 -238 0
-99 1344 0
-93 1275 0
-1368 1370 0
87 0
-1310 1311 0
-187 -81 0
62 889 0
-1751 191 1752 0
-548 551 0
-765 -48 766 0
-312 4 314 0
-528 529 0
-653 40 0
-1070 171 1071 0
-25 512 0
-1501 243 1502 0
-357 -227 0
-539 -28 541 0
-1427 159 1429 0
-147 1798 0
-789 790 0
-66 65 0
-1052 1054 0
-931 935 0
-747 -195 748 0
-1328 216 0
-183 -75 0
-1494 1495 0
-1153 259 1155 0
-1429 160 1431 0
-186 185 0
-918 183 919 0
-642 -217 643 0
-973 974 0
-1392 1399 0
-1023 156 1024 0
-1819 1820 0
-794 796 0
-1460 -197 0
-789 -50 791 0
-331 6 332 0
-1377 1378 0
-1479 -112 1481 0
-632 220 0
130 1675 0
-773 -48 0
-269 -137 0
-92 1253 0
-71 1047 0
-1119 1121 0
-1365 -103 0
-1576 122 0
-715 716 0
-54 53 0
-1561 1562 0
-920 921 0
-1185 272 0
-105 1399 0
-1599 -204 1600 0
-1081 77 1083 0
-938 65 940 0
90 1229 0
76 1065 0
-1687 1688 0
-1461 -112 1462 0
-1368 -253 0
-430 -17 432 0
78 1111 0
-238 237 0
-1213 295 0
41 0
281 1061 0
-1365 1366 0
-1811 -149 0
-1224 1225 0
-1103 1106 0
-377 10 379 0
-982 987 0
-757 208 759 0
-427 217 428 0
-944 196 0
-1093 187 1094 0
-421 17 423 0
-540 545 0
-1146 -168 0
-807 201 0
-112 1480 0
-1485 -114 1486 0
-376 -250 0
-1812 1814 0
-458 -22 459 0
-1170 -260 0
-297 1700 0
-923 929 0
-1370 1372 0
-307 -151 0
-966 967 0
-89 1240 0
-524 525 0
-259 1174 0
-1798 -148 1799 0
-383 384 0
-927 931 0
-1291 1292 0
-1170 1173 0
-257 -29 0
-519 -178 0
-849 850 0
283 0
-991 995 0
-188 187 0
-1441 -108 0
-1674 1676 0
-903 -168 0
-1573 1578 0
-1033 1034 0
-1354 104 1356 0
-657 238 0
175 0
-796 -186 0
-949 197 950 0
-854 -251 855 0
-2 318 0
-556 31 558 0
-997 -229 998 0
-1217 1218 0
-33 596 0
-1477 225 1478 0
64 937 0
-736 -45 738 0
-775 776 0
-654 657 0
-114 113 0
-533 538 0
-656 237 657 0
-1620 1624 0
-513 516 0
-1018 -294 0
-1033 -157 0
-1491 -224 1492 0
-1542 1543 0
-1006 292 1008 0
-1024 157 0
-1421 1424 0
-1410 296 1412 0
-337 -6 339 0
-1514 -243 1516 0
-1612 124 1613 0
-1746 141 1748 0
-1075 -170 1077 0
-1703 -132 0
61 904 0
-717 -181 0
-575 577 0
-838 841 0
-298 297 0
-1436 -160 0
-1580 204 0
-472 -23 474 0
-1437 -160 1438 0
81 1147 0
-438 439 0
-701 703 0
-1420 -296 0
-993 -229 0
-1143 1144 0
-502 503 0
-1745 1750 0
-107 1441 0
-337 341 0
-384 266 0
-40 39 0
-1182 1189 0
-1767 144 1769 0
-221 0
-650 39 652 0
-1315 99 1317 0
-644 -219 0
-1488 1491 0
-54 815 0
-33 609 0
-257 -39 0
-1468 1469 0
-1559 -119 1561 0
-1775 -144 1777 0
-160 159 0
-253 -69 0
-1095 -76 1097 0
-929 -181 930 0
-1602 122 1604 0
-224 223 0
-768 770 0
145 1783 0
-1351 1352 0
-678 -240 0
-1028 -155 1030 0
-551 -250 552 0
-1512 1520 0
-689 690 0
-621 38 623 0
-831 835 0
-1535 1536 0
-61 896 0
-333 208 0
-990 -69 992 0
-540 -29 542 0
-311 312 0
-1411 296 0
-1308 -286 0
-1573 121 1575 0
-27 516 0
-873 874 0
-1422 -296 1423 0
-1618 1623 0
-431 432 0
-1121 214 0
-1779 -146 1781 0
-311 3 313 0
-1425 108 1427 0
-1277 1278 0
-1639 288 0
-893 895 0
-1513 -116 1515 0
-439 19 0
-814 816 0
-334 -4 336 0
69 983 0
-1646 -287 1647 0
-981 230 0
-1602 1603 0
-1570 -191 1571 0
-1218 1220 0
-294 293 0
-1645 1647 0
-2 0
-1032 -157 1034 0
-960 963 0
-1480 1485 0
142 1763 0
-940 941 0
263 0
-1047 -72 1049 0
-56 844 0
-1180 1188 0
-640 644 0
-1360 255 1362 0
-1344 1345 0
-1142 168 0
-1665 127 0
-36 35 0
-1265 1266 0
-1019 72 1021 0
-1124 1125 0
-1727 1729 0
-1202 1205 0
-215 -111 0
-493 -151 495 0
-1526 261 1528 0
129 1685 0
-134 1720 0
-220 219 0
-1624 -233 1625 0
-1385 274 1386 0
-706 182 0
-1007 1008 0
-866 867 0
-1404 -274 1405 0
-745 748 0
-1171 -259 1172 0
210 971 0
-424 425 0
106 1408 0
-360 -228 0
-1269 1273 0
-136 1731 0
-188 1312 0
-1168 -84 1169 0
-1322 214 0
-749 750 0
-1414 297 1415 0
-1642 -285 0
-1653 1655 0
-88 87 0
-629 217 630 0
-1165 -84 1167 0
-1572 120 1574 0
-487 490 0
-91 1244 0
-608 200 0
-872 270 0
-1434 -159 1436 0
-666 -39 668 0
-1375 1376 0
-285 1644 0
-495 -152 0
-1074 1075 0
-690 692 0
111 1464 0
-597 -163 0
-1051 -74 1052 0
-1473 1478 0
-269 -69 0
-963 -196 964 0
-272 271 0
71 1019 0
-491 492 0
-1017 -293 1018 0
-370 373 0
-221 1256 0
-302 151 304 0
125 1664 0
-952 957 0
-799 53 801 0
112 1465 0
-1195 1199 0
-1579 1582 0
-1815 -269 1816 0
-927 -182 0
-996 999 0
-606 199 608 0
-1543 119 1545 0
-14 13 0
40 658 0
-48 774 0
-855 -252 856 0
-1769 145 0
-1442 1443 0
-1359 254 1361 0
-239 -69 0
-482 26 484 0
-164 599 0
-134 133 0
-939 66 941 0
-737 -46 739 0
-879 882 0
-215 -121 0
-198 197 0
-948 196 949 0
-1767 1768 0
37 625 0
-1492 -225 1493 0
-341 -207 342 0
-616 -200 0
-338 339 0
-1476 224 1477 0
-548 -249 549 0
-1674 275 0
-481 290 0
-1012 -291 1014 0
-1820 300 0
-201 -65 0
-1173 -261 0
-468 271 469 0
-1503 243 1504 0
-1509 1510 0
-13 400 0
-1782 -226 0
-443 20 445 0
-1799 -247 1800 0
-454 -21 456 0
-926 927 0
-352 -6 354 0
-1063 284 0
-1110 78 1112 0
-5 340 0
-1781 -225 0
-1669 128 1671 0
-844 853 0
-219 825 0
-945 950 0
-1067 170 0
-520 -178 521 0
-486 152 0
-1110 1111 0
-624 218 0
-566 -30 568 0
-1786 148 1788 0
-1390 276 0
-1576 1577 0
-589 590 0
-1071 172 0
-920 -62 922 0
-1435 1436 0
-268 267 0
-56 824 0
-853 -58 854 0
-521 -179 0
-930 934 0
-1051 1053 0
-1251 -204 0
-552 -251 553 0
-1295 284 0
79 1134 0
-271 -31 0
-1124 -79 1126 0
-1697 1701 0
-472 473 0
-1619 1620 0
-991 -70 993 0
-1197 1200 0
-1299 286 0
-47 765 0
-10 9 0
-20 453 0
-1459 -112 0
-115 1533 0
-74 73 0
-1635 286 1637 0
-1122 -78 1124 0
-479 24 0
59 868 0
-1118 1120 0
-194 193 0
-295 1422 0
-1652 246 1653 0
-1490 -225 0
-671 -238 673 0
-888 62 890 0
-981 982 0
-1244 1246 0
-1501 1504 0
-1380 1385 0
-1073 -169 1075 0
144 1765 0
-1039 1040 0
-398 399 0
137 1726 0
-227 775 0
-1438 -161 0
-1800 -248 0
-1321 1327 0
-723 724 0
99 100 101 102 231 232 233 234 0
-62 61 0
-582 583 0
-943 949 0
-1193 -85 1195 0
-1433 -108 1435 0
-120 119 0
-1349 1350 0
6 344 0
-896 -62 898 0
-221 827 0
-581 278 583 0
-1083 1091 0
-525 29 527 0
-1447 1452 0
-246 245 0
-1753 1754 0
-1369 1371 0
-465 466 0
-690 -290 0
-1553 1556 0
-1232 1233 0
-26 513 0
-1111 1114 0
89 0
-1431 1432 0
-1405 -275 1406 0
-649 650 0
-508 509 0
-1037 73 1039 0
27 524 0
174 0
-389 -12 390 0
-806 201 808 0
-1384 273 1385 0
-1416 1417 0
-558 32 560 0
-1601 -206 0
-911 915 0
-1180 86 1182 0
-108 107 0
105 1383 0
-1455 -110 1457 0
-413 -15 415 0
-491 -26 493 0
-771 -209 772 0
-1762 142 0
-814 -199 0
-328 332 0
-1741 1742 0
-1634 285 1636 0
-1260 95 1262 0
-852 857 0
127 1666 0
-1276 -95 1278 0
-265 -21 0
-93 1254 0
-72 1048 0
-123 1640 0
-754 207 756 0
-1135 239 0
-48 767 0
-11 389 0
-323 -177 324 0
-399 164 0
-254 253 0
-387 -11 0
-25 491 0
39 655 0
-1483 1484 0
-735 740 0
-183 1445 0
-255 -115 0
-900 901 0
-516 518 0
-407 16 0
-227 -17 0
-1303 1307 0
-59 879 0
-1667 1668 0
-1225 1226 0
-1104 1107 0
-457 460 0
-1084 1085 0
-1542 118 1544 0
-700 702 0
-1787 1788 0
-1330 -99 1332 0
-959 -196 0
-808 202 0
79 1114 0
-362 9 364 0
-119 1587 0
-32 572 0
-1409 1410 0
75 1080 0
-242 241 0
-383 265 0
-122 1618 0
-187 -89 0
-1628 1631 0
-967 968 0
-261 1539 0
-826 827 0
-1549 1552 0
-1627 -234 1628 0
-1615 235 1616 0
-1394 -106 1396 0
-1734 1735 0
-1456 -111 1458 0
-66 960 0
-1593 1594 0
-305 306 0
-724 731 0
-1171 1174 0
-448 257 0
-1151 1152 0
-767 769 0
-353 -7 355 0
-434 -217 0
-709 710 0
-1339 -214 1340 0
-465 24 0
-293 1219 0
-627 218 628 0
-728 733 0
-168 167 0
-199 817 0
-850 856 0
80 1135 0
-1259 94 1261 0
-95 1283 0
67 973 0
116 1503 0
-567 -31 569 0
-1224 157 0
-1495 1500 0
-441 237 0
-321 -4 322 0
-1056 -259 0
-1801 1802 0
141 0
-873 -58 875 0
-1660 1661 0
-1013 1014 0
-397 163 399 0
-255 -125 0
-1265 241 0
-1761 -192 0
-1150 84 1152 0
-227 -27 0
-425 217 0
-1640 -124 1642 0
-697 698 0
-1096 1101 0
-556 557 0
-601 34 603 0
-755 756 0
-983 70 984 0
-1116 211 1117 0
-1080 76 1082 0
-94 93 0
-1316 99 1318 0
135 1722 0
-910 181 0
101 1351 0
-1822 -299 1824 0
-1100 1103 0
-956 -195 0
-1080 1081 0
-439 440 0
-959 962 0
-318 321 0
-864 267 866 0
-1520 -243 1521 0
136 1723 0
-62 921 0
154 0
-431 -17 433 0
-776 -229 0
-1659 -246 1661 0
-662 239 663 0
-1711 215 1713 0
-1163 1168 0
-623 624 0
-609 -34 611 0
-34 610 0
-482 483 0
64 916 0
-822 823 0
-1687 297 1689 0
-1730 1731 0
-1705 -162 0
-1589 1590 0
52 798 0
-1794 1795 0
-807 808 0
-72 1028 0
-1147 1148 0
-1111 79 1113 0
-365 366 0
-517 -177 0
-766 -207 0
-1574 1575 0
-450 257 451 0
40 680 0
289 481 0
-1132 1133 0
-627 631 0
-1147 82 1149 0
-1326 214 1327 0
-1331 1332 0
-1089 1094 0
-1216 -293 1218 0
-1241 -91 1243 0
-1053 -257 1054 0
-187 1311 0
-1728 255 1729 0
-228 227 0
-1457 1458 0
-227 -37 0
-1336 1339 0
-265 574 0
-1316 1317 0
-1656 1657 0
-1412 297 0
-1631 -236 0
-1367 -104 1368 0
-1515 1516 0
-732 195 733 0
-85 1215 0
-1783 146 1785 0
23 0
-525 534 0
4 326 0
-119 1567 0
-1715 -133 1717 0
-803 199 805 0
-815 817 0
95 1267 0
-1355 104 1357 0
-409 193 0
-998 -230 999 0
-1156 1161 0
-1198 1201 0
-185 -63 0
-1524 1525 0
-1212 295 1214 0
-1366 -104 0
-131 1714 0
-736 737 0
-457 -257 0
-148 1810 0
-976 984 0
-107 1433 0
-63 951 0
295 1413 0
-1274 244 0
-81 1162 0
-1708 1709 0
-1653 247 0
-1280 -241 1282 0
-1076 -170 1078 0
-1553 191 0
-1402 1406 0
77 1110 0
45 749 0
-1742 175 0
-150 1822 0
-1236 202 1238 0
-357 360 0
-1267 96 1268 0
-833 251 0
-683 684 0
-327 5 329 0
-528 30 530 0
46 750 0
-1440 -162 0
-1450 1451 0
-463 464 0
-803 804 0
-919 184 0
-1309 1310 0
-142 141 0
-275 -123 0
-859 59 861 0
7 349 0
-1775 1776 0
-145 1792 0
-648 -220 0
-1094 188 0
-1270 1274 0
-1634 1635 0
-681 289 683 0
-895 168 0
-1192 1193 0
-467 24 468 0
-725 193 727 0
-404 405 0
-101 1346 0
-698 44 0
85 1207 0
-424 18 0
-609 610 0
-1312 1313 0
-692 -291 0
-1443 -110 0
-530 531 0
26 483 0
-13 412 0
-1029 -155 1031 0
68 974 0
-1253 -93 0
-1557 -118 1559 0
-1442 -109 0
-1588 -121 1590 0
-68 67 0
-5 352 0
-1496 1497 0
134 0
-1391 -104 1393 0
-266 576 0
120 1551 0
-1632 124 1634 0
-1177 84 1179 0
-1821 1822 0
-264 -263 -128 -127 -126 -125 0
-784 52 786 0
106 1387 0
-816 -200 0
-10 0
-1379 1380 0
-1238 1239 0
-626 217 627 0
-597 598 0
-874 -59 876 0
-1202 -272 1203 0
-1814 -269 0
-1443 1444 0
-456 457 0
-767 -207 768 0
-423 18 425 0
-97 1329 0
-1498 116 0
-1704 1705 0
-1034 -158 0
-1583 1586 0
-1563 1564 0
-781 782 0
-207 -35 0
-1512 -116 1514 0
-1003 70 1005 0
-1243 1245 0
-1231 92 1233 0
-1185 1186 0
-962 -197 0
-742 -194 0
57 834 0
-1383 1387 0
-1262 1268 0
-1626 1629 0
-284 -283 -282 -281 -74 -73 0
-969 209 0
-1291 96 1293 0
-664 665 0
-1395 -106 1397 0
-1131 -213 1133 0
-708 -43 710 0
-14 401 0
-742 745 0
-202 201 0
-893 167 0
-1334 -213 0
-787 185 0
-432 -18 434 0
-1239 204 0
-748 -196 0
88 0
-1278 -96 1280 0
-1312 -189 0
-707 708 0
137 1738 0
-1047 1048 0
-220 826 0
-406 407 0
-542 546 0
-1392 -105 1394 0
-842 254 0
-863 267 865 0
-1345 -101 0
-661 238 662 0
-1311 -188 0
-1592 1599 0
138 1739 0
13 396 0
-405 408 0
-249 -19 0
-385 386 0
-887 -270 0
-989 994 0
209 0
-1529 263 0
-128 127 0
-819 -201 820 0
-1357 1358 0
77 1090 0
45 729 0
-774 775 0
65 0
-449 22 450 0
-390 392 0
-993 996 0
-1541 -264 0
-712 -179 714 0
-1042 258 1044 0
-1581 203 1582 0
-1099 1100 0
-116 1534 0
-452 453 0
-462 23 464 0
42 696 0
-70 1012 0
-563 267 565 0
-1727 255 0
-656 659 0
-856 -253 857 0
-1022 156 0
-498 -153 499 0
-1502 1505 0
-1544 119 1546 0
-1182 271 1184 0
-1375 104 1377 0
-174 173 0
-267 885 0
-947 195 948 0
-1696 -297 1698 0
-99 1335 0
-1807 1808 0
-401 -163 403 0
-1026 158 0
-1166 1167 0
-1772 225 0
-845 -57 847 0
-1288 -242 1289 0
116 1525 0
-269 -123 0
-900 -166 902 0
-109 1443 0
-1555 191 1556 0
-865 871 0
-1341 -214 1342 0
-42 41 0
-908 909 0
-290 693 0
-1396 -273 1398 0
-1470 1471 0
-455 -22 457 0
-1765 205 0
-954 -66 956 0
-325 326 0
-257 1055 0
-212 -211 -210 -209 -68 -67 -66 -65 0
-1248 -202 1249 0
-344 349 0
-445 446 0
-1099 -78 0
-313 4 315 0
-1353 1354 0
-645 -217 646 0
33 601 0
-1480 -113 1482 0
-1510 1519 0
-595 -280 0
-1784 147 1786 0
-507 178 509 0
-1638 287 0
-912 916 0
245 1652 0
-858 58 860 0
-892 894 0
-232 1349 0
-1336 -213 1337 0
122 1581 0
-599 -165 0
-1763 143 0
-396 14 398 0
-1537 1538 0
176 0
-1095 1096 0
-1514 1521 0
-590 594 0
-1011 -70 1013 0
-313 314 0
-570 572 0
-598 -164 0
15 408 0
-603 35 605 0
-279 -39 0
-833 836 0
-1118 212 1119 0
-512 513 0
-974 69 976 0
119 1548 0
-124 1641 0
-371 372 0
-915 919 0
-1279 1280 0
-26 492 0
-460 -258 0
-176 175 0
-1141 167 0
-829 57 831 0
-151 497 0
-1123 -79 1125 0
-1664 126 0
-1604 1605 0
-517 519 0
-1726 1728 0
-219 -47 0
-681 682 0
-1021 1022 0
-100 1338 0
-1430 161 1432 0
-1074 -169 1076 0
-1283 1287 0
-1435 -159 0
-1740 288 0
-1346 1347 0
-61 920 0
2 302 0
-211 -71 0
-564 565 0
-422 17 424 0
-763 764 0
