p cnf 2060 3902
-102 101 0
-1972 -242 0
-841 -303 843 0
-600 -176 0
-56 891 0
-924 932 0
-1125 77 1127 0
-1088 1089 0
-431 14 433 0
-183 -117 0
-1913 -138 1915 0
-563 565 0
-826 829 0
-286 285 0
-599 -175 0
-1716 125 1718 0
-1792 1796 0
-1855 1856 0
-42 682 0
-145 1981 0
20 477 0
-221 -107 0
-426 427 0
-277 -39 0
-937 -59 939 0
-1131 1132 0
-768 -240 0
-956 -62 0
-1014 256 0
-139 1917 0
-2039 2040 0
-1526 310 0
-28 27 0
-410 -267 0
-630 633 0
-1597 1598 0
122 1692 0
-903 243 905 0
-735 -207 0
-1456 1457 0
138 1902 0
-473 -237 475 0
-148 147 0
-122 0
-893 896 0
91 1332 0
110 1574 0
-212 211 0
-1844 185 0
-1140 1141 0
-1409 170 1411 0
49 777 0
-1660 1663 0
-1536 -108 0
-1339 1340 0
-564 -204 0
-679 -42 0
-834 838 0
-557 558 0
-1234 230 0
107 1541 0
-1127 78 1129 0
-1607 320 1609 0
-116 1612 0
-1614 -320 0
-1722 1724 0
-3 357 0
-818 819 0
-1965 1966 0
-697 700 0
-625 -215 0
-819 823 0
-712 720 0
-882 883 0
-1613 -319 0
-1870 -134 1872 0
-864 -166 865 0
-1018 1022 0
-1509 -281 1511 0
-1898 -223 0
-1465 262 1467 0
-1644 198 1646 0
-1002 1003 0
-620 -34 622 0
-1599 -299 0
-696 -42 698 0
-1707 1708 0
-966 207 968 0
-1506 -106 1508 0
-682 684 0
-1202 1206 0
-1164 -305 1166 0
-1495 281 1496 0
-624 625 0
-1351 -198 0
-127 1760 0
-177 1085 0
-1266 88 1267 0
-1950 321 1952 0
-28 570 0
-687 -298 0
-162 161 0
-2032 2033 0
-1663 -199 0
-23 505 0
-756 -47 758 0
-1673 221 1675 0
-1590 1591 0
-559 -27 0
-282 281 0
-964 970 0
-499 163 501 0
-1288 269 1290 0
-1729 -125 1731 0
-1102 219 0
160 2054 0
-1791 -263 0
-922 59 924 0
-706 -190 0
-844 -304 0
-818 -51 820 0
-345 346 0
-1695 1696 0
-1914 1917 0
-1139 -77 1141 0
-24 23 0
-251 -19 0
-639 -244 0
-1502 284 0
-1670 122 1672 0
-1121 -219 1122 0
-1112 1113 0
-535 -187 0
-624 -36 0
-150 149 0
-670 671 0
-1721 233 1722 0
-1576 112 1578 0
70 1055 0
-279 1050 0
-208 207 0
-1073 1077 0
-998 -241 0
-1133 78 1134 0
-140 1919 0
-1486 -263 1487 0
-2040 2042 0
-995 996 0
-1778 1782 0
-211 -91 0
-733 736 0
-1824 -284 0
-1038 280 1040 0
-1055 315 1057 0
-1849 -183 1851 0
-261 1485 0
-1078 180 0
-1840 1843 0
-1355 1363 0
-1558 -109 1560 0
-1398 1401 0
-937 942 0
-52 841 0
-1774 263 1776 0
-294 -293 -162 -161 -160 -159 0
-1643 197 1645 0
-1313 -90 1315 0
-76 75 0
-1254 -231 1255 0
-1598 -116 0
-1322 90 1324 0
-1843 184 1844 0
-77 1162 0
-437 -313 0
-122 1685 0
-1166 -306 0
-24 530 0
-2033 -157 0
-1062 1063 0
-338 340 0
-711 45 713 0
-941 944 0
-1547 231 0
-1582 1585 0
-921 922 0
-260 259 0
-416 420 0
-1285 -258 0
-1582 -111 1584 0
-1827 -283 1828 0
-358 361 0
-241 -137 0
-1183 1187 0
-1457 -248 0
-1767 -249 1768 0
-1776 264 0
-430 -296 0
-605 606 0
-1541 108 1543 0
-14 436 0
-819 -52 821 0
-957 -191 0
118 1638 0
-151 2008 0
-142 0
-897 56 899 0
-10 406 0
-30 577 0
-921 58 923 0
-1265 1270 0
-1296 -269 1298 0
-2 1 0
-251 -29 0
-1997 152 0
-1159 306 1160 0
-239 -55 0
43 44 189 190 191 192 0
-117 1628 0
-1046 1048 0
-1309 1312 0
-122 121 0
-1353 93 1355 0
-813 278 814 0
-720 205 721 0
-305 1168 0
-1316 -180 1318 0
13 431 0
-875 228 0
-1575 111 1577 0
-1087 -180 0
-1790 -263 1792 0
9 397 0
-1313 1314 0
-1324 91 1326 0
-1471 263 1472 0
-1071 1076 0
76 1124 0
25 521 0
-663 -262 0
-1211 1218 0
-1939 1940 0
-1216 -209 0
-283 -121 0
-914 916 0
106 1497 0
-1376 1379 0
-948 -268 949 0
-1356 1357 0
-171 1634 0
-281 -75 0
-695 316 0
79 1171 0
-2021 2023 0
-1626 173 1627 0
-1496 1499 0
126 1740 0
-724 -44 726 0
-1259 88 1261 0
-596 178 0
-835 836 0
233 1723 0
-1822 1823 0
-684 -296 685 0
-1019 -68 0
-1110 -75 1112 0
-1681 1682 0
-656 658 0
-41 696 0
-1310 180 1311 0
-1118 1121 0
-1357 219 1359 0
-2028 -156 2030 0
-1103 76 1104 0
-8 0
-945 -267 946 0
-1247 -86 1248 0
123 1707 0
-136 135 0
-1874 -136 1876 0
-800 -254 0
-577 578 0
84 1227 0
-1443 1446 0
-456 459 0
-346 -187 348 0
-1423 1424 0
-1350 -197 1351 0
-256 255 0
-1932 292 1934 0
124 1708 0
-1375 -220 0
-320 319 0
-1543 1544 0
-1263 1269 0
-460 461 0
-722 207 723 0
-886 -56 0
-417 14 0
-859 864 0
67 1030 0
-1306 1307 0
-1330 196 0
-1185 1188 0
-1607 1608 0
-1749 128 1750 0
-1940 -142 0
-1169 -307 1170 0
-1347 -196 1348 0
-1754 -126 1756 0
-1056 315 1058 0
-785 786 0
-1126 78 1128 0
-1568 1572 0
-1939 -141 0
-506 -163 508 0
-1778 263 1779 0
-644 645 0
-364 -204 0
-955 -300 0
-1490 1491 0
21 22 277 278 0
-1556 234 0
-465 467 0
-704 -44 0
-1464 261 1466 0
-182 181 0
-1411 1412 0
-1606 320 1608 0
-1190 -81 0
-1637 118 1639 0
-1772 1778 0
-723 208 0
-1368 1373 0
58 922 0
145 1973 0
-406 409 0
-1645 198 0
-638 -243 0
-1730 -126 1732 0
21 482 0
-1935 1936 0
-190 707 0
-869 55 871 0
-1153 1154 0
-383 9 385 0
-951 -60 0
-1595 -274 0
-1372 1375 0
-1352 1353 0
-1615 1617 0
-711 712 0
-1374 -219 1375 0
-62 978 0
-50 49 0
-257 -101 0
-570 571 0
-662 -261 663 0
-1557 1558 0
-1135 288 1136 0
-811 52 812 0
-888 -56 889 0
-1482 -261 1483 0
-267 -29 0
-1337 1338 0
-885 -56 887 0
-603 -177 604 0
-1677 1678 0
-1036 1037 0
129 1777 0
-1940 1942 0
-1536 1537 0
64 973 0
-386 251 388 0
-234 233 0
-1114 1117 0
-453 454 0
-872 879 0
-1236 86 1237 0
-941 -267 0
-1628 -118 1630 0
-1682 -122 0
-628 -216 0
-1246 -229 0
-1079 1080 0
-1996 -312 0
-1682 1684 0
-1608 321 1610 0
-394 396 0
-1271 -86 1273 0
-637 638 0
-1466 262 0
-1927 141 1929 0
-2010 -153 2012 0
-1638 1647 0
-316 315 0
-169 1417 0
-1545 1546 0
-138 1899 0
-542 -188 543 0
-683 -296 0
-1560 1566 0
-17 468 0
-1929 142 1931 0
-96 95 0
-215 632 0
-2017 155 2019 0
-1335 197 1336 0
-1658 -120 1659 0
-133 1870 0
-1729 1730 0
-539 -188 540 0
-1818 -131 1820 0
-1666 -200 0
52 832 0
-1807 1810 0
18 461 0
-1025 1028 0
-1687 -222 1688 0
-1455 -246 0
105 1518 0
-1291 271 0
-1878 -200 0
-704 705 0
-940 -60 0
-2054 2055 0
-1549 1553 0
-1913 1914 0
-1428 1434 0
-1386 -290 0
-1719 126 1720 0
-1506 1514 0
-1860 199 0
-1330 1331 0
-1244 -86 1246 0
14 432 0
-524 528 0
-644 40 646 0
-6 374 0
-1069 -318 0
-158 2046 0
-668 42 670 0
-1096 76 1098 0
-446 447 0
-758 -48 0
-37 652 0
-133 1847 0
-1995 1996 0
-1394 319 1396 0
-367 368 0
-452 -17 454 0
-786 793 0
-887 890 0
-905 244 907 0
-1134 287 1135 0
-79 1180 0
-46 45 0
-253 1027 0
-1437 -99 1439 0
-1072 1073 0
-1106 219 1107 0
97 1405 0
-110 109 0
-434 314 0
-32 586 0
-1538 1539 0
-551 552 0
-207 -53 0
-2030 -235 0
80 1172 0
-1397 1398 0
-259 660 0
-230 229 0
-225 573 0
67 1010 0
-1886 137 1888 0
-629 632 0
-316 0
-2024 -154 2026 0
-1514 -281 1515 0
-1921 1923 0
-547 27 549 0
-693 315 695 0
-1217 1221 0
-1537 -181 0
-1581 1582 0
-301 1602 0
-1862 1865 0
-368 8 370 0
-2047 2048 0
-105 1513 0
-1279 1282 0
-1894 -137 1896 0
-770 49 772 0
-1640 1648 0
-1464 1465 0
-74 1091 0
-156 155 0
54 868 0
-285 -139 0
-1035 279 1037 0
-1746 1752 0
-1862 199 1863 0
-145 1970 0
68 1031 0
-1789 1790 0
-1381 -222 0
-1021 1024 0
-69 1062 0
-1199 209 1201 0
-516 522 0
-612 216 614 0
44 710 0
-1876 -199 1878 0
-1909 1910 0
-1922 -275 0
130 1802 0
-1127 1128 0
-1346 1349 0
-1973 1974 0
-1136 289 1137 0
-1079 -72 1081 0
-1326 1327 0
-1769 128 1771 0
-1531 1532 0
-443 448 0
-763 766 0
-1420 -172 0
-1173 167 1175 0
-82 81 0
-2004 154 2005 0
-1089 -73 0
-2015 -202 0
-1793 1797 0
-653 -39 655 0
-889 892 0
-869 870 0
-1337 -90 1339 0
-373 -6 375 0
-1101 218 0
-1413 -98 1415 0
-1715 1716 0
-1515 -282 1516 0
-1723 234 1724 0
-947 950 0
-690 313 692 0
-464 20 465 0
-1512 -283 0
-1835 1836 0
-1192 -193 0
-1194 1195 0
-1803 131 1805 0
-442 16 444 0
-1229 1237 0
-241 0
-1393 1394 0
-1740 127 1742 0
-631 634 0
-1037 280 1039 0
-611 612 0
-490 493 0
-525 187 526 0
-290 289 0
-416 14 418 0
-1648 197 1649 0
-1655 1659 0
-1817 1826 0
-1935 293 0
-1592 -271 0
-1577 1578 0
-936 937 0
-367 7 369 0
-261 -57 0
-831 52 833 0
-353 354 0
-769 48 771 0
-1443 -211 1444 0
-1235 231 0
-607 35 609 0
-1856 135 1858 0
-1460 1461 0
-824 -278 0
35 615 0
-155 2032 0
-678 679 0
-1887 1888 0
-216 215 0
23 497 0
-1702 1704 0
-1798 -264 1799 0
160 2043 0
-677 680 0
-1304 1305 0
-446 18 0
-1564 -232 0
153 2004 0
-1523 1526 0
96 1390 0
-862 863 0
-444 17 446 0
-766 -238 767 0
-802 51 804 0
-906 245 908 0
-1272 -87 1274 0
-111 1585 0
-1563 -231 0
110 1553 0
-1066 -316 1067 0
-1969 1970 0
-192 959 0
-303 -41 0
-399 400 0
-361 363 0
-309 -115 0
-972 209 0
-1819 -132 1821 0
-1336 198 0
-853 166 0
-2012 2013 0
-1371 1372 0
-204 203 0
-724 725 0
-1711 1712 0
89 1322 0
-929 930 0
-1123 76 1125 0
-505 -24 507 0
-761 -237 762 0
-241 -125 0
-1426 211 1428 0
90 1323 0
-1895 1896 0
-8 379 0
-1653 1658 0
-261 -67 0
-1816 1817 0
-1841 183 0
-1214 -84 1216 0
-298 954 0
-1132 1137 0
-1438 1439 0
-1583 -111 0
-1017 -67 1019 0
-791 792 0
-119 1679 0
-1377 -220 1378 0
-130 129 0
-913 915 0
-1799 -265 1800 0
-1094 75 1096 0
-1429 212 0
-562 -203 0
323 2060 0
-193 -71 0
-1393 318 1395 0
-1195 1202 0
-2020 2022 0
-392 394 0
-1249 -230 0
-854 857 0
-1960 -322 0
-314 313 0
-1180 1181 0
-1318 -181 0
-131 1826 0
-533 534 0
-2005 201 0
-1068 -317 1069 0
-985 -64 986 0
-1112 -76 0
-1762 1765 0
-2005 2007 0
-1704 1706 0
-54 883 0
-1199 1204 0
-291 -113 0
-795 799 0
-1505 1506 0
-858 859 0
-717 718 0
-56 55 0
-352 6 354 0
-1461 1469 0
-1825 1830 0
-1871 -135 1873 0
-378 -225 0
-1058 316 1060 0
-1807 132 1808 0
-1042 1043 0
-401 402 0
-1804 132 1806 0
-1116 -218 0
-537 541 0
-94 1376 0
-1816 -130 1818 0
-465 237 0
-557 -26 559 0
-112 1587 0
-2014 2015 0
-1367 1368 0
-1786 1793 0
-1246 1249 0
-1371 -94 0
-1494 106 1495 0
-1226 1227 0
-2059 323 0
-585 586 0
-484 260 0
-140 0
-444 445 0
-1047 1049 0
-1652 -118 1654 0
-777 50 778 0
-1468 104 1469 0
-514 25 516 0
-1361 221 0
-1535 -310 0
-769 770 0
-517 26 519 0
-67 1042 0
-1756 1757 0
-241 1972 0
-327 328 0
-617 216 618 0
-1876 1877 0
-762 -238 0
-1669 121 1671 0
-1735 1736 0
-1338 -91 1340 0
-652 653 0
-808 814 0
-79 1189 0
-540 -189 0
-334 3 336 0
-729 -205 0
-851 852 0
-730 733 0
-548 28 550 0
-190 189 0
-61 977 0
-1963 -323 1964 0
-808 278 810 0
-989 -207 990 0
-715 205 717 0
-1497 1500 0
-130 1817 0
-1477 1478 0
-1951 321 1953 0
73 1093 0
-461 19 463 0
-1081 -177 1083 0
-1603 1604 0
-561 -28 562 0
-956 957 0
-2007 202 0
-42 0
-744 237 746 0
-1418 1420 0
-1739 126 1741 0
-648 260 650 0
-373 374 0
-1360 1361 0
-1961 -322 1962 0
159 2041 0
-1025 -254 1026 0
-578 579 0
-830 -280 0
-437 438 0
-339 187 340 0
-1559 -109 1561 0
-116 115 0
-1622 1626 0
-457 -18 458 0
-790 -251 792 0
-698 699 0
-85 1271 0
152 2001 0
-1696 311 1698 0
-597 -34 599 0
-903 904 0
-681 -295 0
-1601 -301 0
-378 380 0
134 1840 0
-471 -20 473 0
3 337 0
-300 299 0
34 590 0
-1165 1169 0
-1600 -300 0
-1823 -284 1825 0
-146 1971 0
-502 165 504 0
-440 441 0
-1657 -197 0
-531 -25 533 0
-1532 -309 0
-1015 -66 1017 0
-1770 129 1772 0
-29 0
-980 -64 982 0
-66 996 0
-496 -278 0
-2053 2054 0
-1548 1552 0
-520 188 0
-1155 305 1157 0
-104 103 0
-1611 1612 0
84 1206 0
-1708 213 1710 0
-708 -192 0
-109 1565 0
-1646 199 0
-1737 1738 0
-387 388 0
-1090 1091 0
-1792 -264 0
-1489 1494 0
-707 -191 0
-1045 -70 0
-288 287 0
-606 615 0
-1082 -178 1084 0
-507 508 0
-926 933 0
-1705 -311 1706 0
-845 -305 0
-443 17 445 0
-148 1987 0
-77 1144 0
-571 572 0
-1107 220 0
-433 313 0
-1891 223 0
-30 29 0
-734 -206 735 0
-1080 -177 1082 0
69 1054 0
-1599 1600 0
-1478 1481 0
-1458 1459 0
-1703 -310 1704 0
-1721 1723 0
-999 -242 0
-1920 1922 0
-827 -279 0
-971 208 972 0
-774 779 0
-928 268 930 0
-1111 -76 1113 0
-574 575 0
-1737 -235 0
-433 434 0
-834 304 836 0
-1260 88 1262 0
-300 1601 0
-1662 1665 0
-638 639 0
-1341 1342 0
-1033 70 1035 0
-1200 1201 0
-559 560 0
-978 985 0
-1699 -122 1701 0
-1130 288 1132 0
-758 759 0
-532 -26 534 0
-1342 -195 0
-468 -18 470 0
-1132 289 0
305 1159 0
-551 203 553 0
-6 363 0
-1098 1105 0
-1391 317 1393 0
-165 864 0
-1982 -147 1984 0
-269 1301 0
-632 -216 633 0
-743 744 0
-1083 1084 0
93 94 95 96 289 290 291 292 0
-924 60 926 0
-740 749 0
-841 846 0
165 855 0
-821 824 0
-959 -193 0
-362 -203 0
-952 -297 0
-55 888 0
-1709 1710 0
-1550 1554 0
-1623 172 0
-1146 1149 0
-1761 -247 1762 0
-485 486 0
-132 1836 0
-281 -93 0
-882 -54 884 0
-958 -192 0
-969 64 970 0
-164 163 0
-2034 2035 0
-1592 1593 0
49 801 0
-1451 1452 0
-1067 1069 0
-38 653 0
-1604 319 1606 0
-627 -215 628 0
-114 1597 0
-479 22 481 0
-888 891 0
-86 1250 0
-1527 -106 1529 0
-1653 -119 1655 0
50 802 0
-215 -27 0
-1629 -171 1631 0
-677 -41 679 0
-1987 -265 1988 0
-994 995 0
-1839 134 1841 0
-347 348 0
-1445 -211 1446 0
-491 -22 492 0
-403 267 0
-1212 -83 1214 0
-226 574 0
-189 -33 0
-90 89 0
-672 673 0
-1217 -210 0
-1518 1519 0
-51 840 0
-1321 -182 0
-775 251 0
-148 1990 0
-2042 2044 0
-728 -46 0
-1032 69 1034 0
-370 225 372 0
-1178 169 1179 0
-382 9 384 0
-274 273 0
-1780 1784 0
-1129 287 1131 0
-1441 -211 0
-23 529 0
141 1949 0
-1096 1104 0
-1280 1283 0
-1260 1261 0
-899 57 901 0
-1010 68 1011 0
-291 1388 0
-1386 1387 0
-987 -208 988 0
-511 -165 512 0
-739 740 0
-16 15 0
-1530 -308 1532 0
-543 -189 544 0
-1100 1106 0
-560 562 0
-1400 -318 0
-1119 -219 0
-1449 -213 1450 0
-1188 -170 0
-1003 68 1005 0
-1811 284 1812 0
27 28 29 30 225 226 227 228 0
-923 924 0
-1650 199 1651 0
-1902 139 1904 0
-1769 1770 0
-1622 172 1624 0
-1684 -221 0
-1978 265 1980 0
-1265 257 0
-623 627 0
116 1604 0
-245 -65 0
-413 12 415 0
-92 1346 0
-447 215 0
-1531 -308 0
-191 958 0
-982 -207 984 0
-455 -18 0
-249 2036 0
-1306 179 1308 0
153 2016 0
-1953 1954 0
-384 10 386 0
-1868 201 1869 0
-4 3 0
-423 428 0
-1511 1512 0
-782 252 783 0
-1871 1880 0
66 1001 0
154 2017 0
-1379 -220 1380 0
-765 -239 0
-1048 1050 0
-538 -187 539 0
-179 1319 0
-1191 -82 0
-748 753 0
-618 217 619 0
-427 430 0
-694 315 0
-175 -23 0
-407 408 0
-732 -206 0
-705 -189 0
-1838 -302 0
-426 -14 0
-1315 1316 0
-95 1397 0
-453 -17 455 0
-44 725 0
130 1781 0
-1936 294 0
-626 -36 627 0
-1272 1277 0
-1252 1255 0
-150 1992 0
-591 592 0
-1934 293 1936 0
-273 1921 0
-270 269 0
-964 64 966 0
-1373 -94 1374 0
17 448 0
-1378 1381 0
-2025 -155 2027 0
-1510 -282 1512 0
-1961 1963 0
-583 303 0
46 740 0
-1903 1904 0
-997 -240 0
-568 -206 0
85 1256 0
-474 475 0
-1410 171 1412 0
-128 1786 0
-333 334 0
-1618 -322 0
-1488 104 1490 0
-996 -239 0
-1241 1242 0
-117 1652 0
-1761 1764 0
-472 -20 474 0
-1703 1705 0
-138 137 0
-719 46 720 0
-1179 170 0
-784 254 0
-64 989 0
-757 -48 759 0
-205 -33 0
-203 565 0
-1445 1448 0
-1348 -197 0
-1417 -170 1418 0
-1425 1426 0
-1588 -258 0
-83 1241 0
71 1070 0
-1422 1431 0
-1304 90 1306 0
-983 984 0
-1735 -234 1737 0
25 545 0
-197 1664 0
-322 321 0
-842 843 0
-1182 -167 1184 0
-832 303 834 0
-1196 83 1198 0
-128 1763 0
-107 1557 0
-942 -60 943 0
-1308 1309 0
-1003 1011 0
51 831 0
-408 -12 0
-1363 219 1364 0
-1309 181 0
-1456 -247 0
-1728 -125 1730 0
-64 63 0
-299 -69 0
-189 706 0
-407 -11 0
-983 -207 0
-1504 -105 1506 0
37 640 0
-742 48 744 0
62 962 0
-1492 1493 0
-1007 1013 0
-1387 -291 0
-815 280 0
-987 991 0
-184 183 0
-1992 -285 0
-909 910 0
38 641 0
-1200 209 0
-1647 120 1648 0
-248 247 0
-1516 -283 1517 0
104 1489 0
-1140 -77 1142 0
-795 -252 796 0
-337 4 338 0
-243 -47 0
-1315 -179 1317 0
-299 955 0
-1774 1779 0
-1234 1235 0
-1245 -86 0
-593 594 0
-1113 1116 0
-1093 1094 0
-1171 80 1173 0
54 850 0
-1815 286 0
10 398 0
-75 1114 0
-408 410 0
-1403 -319 1404 0
-1027 -254 1028 0
-123 1711 0
307 1524 0
-1559 1560 0
-441 -176 0
-572 573 0
-1859 136 0
-2031 -236 0
-393 395 0
-826 -278 827 0
-1969 -145 0
-335 336 0
-70 1048 0
-1539 -183 0
-1942 1944 0
-440 -175 0
-1892 224 0
-88 1296 0
-1437 1442 0
-1763 1766 0
-1743 1744 0
-918 -245 0
-455 456 0
-334 337 0
-909 -56 911 0
-700 -314 701 0
-1828 -284 1829 0
-917 919 0
-1307 180 1309 0
-1345 -196 0
-796 800 0
-137 1897 0
-1590 -113 0
-58 915 0
-1956 324 0
-1684 1686 0
-699 -314 0
-1857 135 1859 0
-1927 1928 0
-1711 -124 1713 0
-1806 1809 0
-13 428 0
-1170 -308 0
-1453 -102 0
-1290 270 0
-119 1658 0
-1458 102 1460 0
53 867 0
-659 661 0
-481 259 0
-538 542 0
-1484 1487 0
-1100 218 1102 0
81 1194 0
-44 705 0
-1568 -233 0
-1973 146 1975 0
-1669 1670 0
-803 51 805 0
-381 382 0
-1941 -142 1942 0
-1294 272 0
159 2053 0
-741 47 743 0
-60 59 0
-15 439 0
43 709 0
-1809 1812 0
-621 -35 623 0
-1042 -68 1044 0
-89 1313 0
129 1801 0
-249 -137 0
143 144 145 146 241 242 0
-124 123 0
-341 -2 343 0
-1994 1995 0
-706 707 0
-1228 85 1230 0
-524 189 0
-138 0
-973 207 974 0
-244 243 0
-1810 283 1811 0
-1048 -279 1049 0
-1888 138 1890 0
-1117 -217 1118 0
3 349 0
-1470 262 1471 0
-949 -269 950 0
-1524 308 1525 0
-259 -29 0
-1565 -110 1566 0
-736 -206 737 0
-910 913 0
-1430 1435 0
-1323 91 1325 0
-2039 159 0
-913 -58 914 0
-1189 -80 0
-933 268 934 0
-645 259 647 0
-712 46 714 0
-1755 1760 0
-1341 -92 0
-1193 -194 0
-476 20 478 0
-1877 1883 0
-432 313 434 0
-1475 -103 1477 0
-773 774 0
99 100 101 102 245 246 247 248 0
-1825 -285 0
-772 50 774 0
-1172 1177 0
-1273 1274 0
-1448 -212 1449 0
-788 794 0
-1881 -199 1882 0
-1594 -273 0
-537 -26 538 0
-170 169 0
-1093 74 1095 0
-1399 1400 0
-1278 1281 0
-291 -121 0
-530 537 0
-1598 1599 0
51 811 0
-957 958 0
-1593 -272 0
-836 839 0
-1677 223 0
-296 295 0
-345 -4 347 0
-429 -295 430 0
-816 817 0
-1153 78 1155 0
-515 516 0
-1204 210 1205 0
-1095 75 1097 0
-1223 -210 1224 0
-1250 -229 1251 0
-1298 1302 0
35 36 37 38 243 244 0
-125 1754 0
-322 1963 0
-143 1965 0
-2034 -158 0
-1219 1223 0
-1046 -70 1047 0
-175 441 0
-40 0
-777 781 0
-260 662 0
-1020 1023 0
-237 -29 0
89 1304 0
-579 -287 0
-1301 -270 1302 0
-1771 129 1773 0
283 1813 0
-1933 292 1935 0
-38 37 0
-682 -295 683 0
-1108 -74 1110 0
-60 952 0
-509 -164 510 0
-90 1338 0
-1466 1467 0
-1493 281 0
-1528 -307 1530 0
-1345 1348 0
-61 956 0
-1020 -253 0
-1131 288 0
-1587 -257 1588 0
117 1637 0
-1704 -311 0
-231 -93 0
-634 -218 0
-353 6 355 0
-762 765 0
-1781 263 1782 0
-222 221 0
-1872 -135 1874 0
-1791 1792 0
-1795 -264 1796 0
-26 541 0
-237 766 0
-1990 1991 0
126 1721 0
-1555 233 1556 0
-1748 1753 0
-1849 1850 0
-1736 -235 1738 0
-966 971 0
-96 1385 0
-142 1943 0
-1975 1976 0
-1333 195 1334 0
-304 303 0
-1481 -262 0
-1726 236 0
-1780 265 0
-591 175 593 0
-932 267 933 0
-1239 231 1240 0
-534 -187 536 0
-1919 -273 1920 0
-84 83 0
-1126 1134 0
-1385 -289 0
-566 568 0
-2036 -250 0
-1532 1535 0
-445 449 0
-809 810 0
-515 25 517 0
303 837 0
-1717 1718 0
-291 -131 0
323 0
-1800 -266 0
-1911 275 0
-1224 -211 1225 0
-1692 309 1694 0
-1275 1276 0
42 689 0
-1716 1719 0
-333 2 335 0
-47 760 0
-2044 276 0
-692 693 0
-799 -253 800 0
-1901 1902 0
-265 -137 0
-622 -35 624 0
-1339 -91 1341 0
-1070 72 1072 0
-1479 1482 0
-96 1398 0
-292 291 0
-1584 -112 0
-1797 -263 1798 0
-544 -190 0
-277 828 0
-1017 1018 0
-92 1368 0
-1842 1844 0
-878 227 879 0
-1357 1364 0
-925 60 927 0
-1400 1402 0
-1663 1666 0
-1819 1827 0
-1643 1644 0
-1262 255 1264 0
-355 356 0
-34 33 0
11 413 0
-716 722 0
-315 1066 0
-1060 1061 0
-235 -137 0
-1923 -275 1924 0
-1222 -209 1223 0
-98 97 0
-1452 -101 0
-1968 1969 0
-1584 1586 0
-1928 142 1930 0
12 414 0
-842 -303 844 0
-418 421 0
-103 1479 0
-1385 1386 0
-1550 231 1551 0
-218 217 0
-614 217 0
-360 362 0
-1451 -100 0
-1990 -149 0
-279 -59 0
-822 825 0
-2020 156 2021 0
-2047 -159 2049 0
-1423 99 1425 0
-1428 212 1430 0
-422 423 0
-685 687 0
-942 945 0
-1205 1209 0
-1478 -261 0
-1548 232 0
-1724 235 0
-1848 -183 1850 0
-1147 1150 0
-179 -79 0
-81 1210 0
161 2055 0
-1264 256 0
-105 1527 0
-1150 -288 1151 0
-2035 2036 0
-1287 1292 0
-747 748 0
-1530 1534 0
-1909 274 1911 0
-626 629 0
-1052 -281 1053 0
-894 -228 895 0
-1746 248 1748 0
162 2056 0
-825 828 0
-1452 1453 0
-1065 -316 0
-667 42 669 0
-144 143 0
-1012 254 1013 0
127 1769 0
-1105 218 1106 0
-7 377 0
-450 216 0
-227 -35 0
128 1770 0
-739 46 741 0
-569 -28 0
-1118 -218 1119 0
-110 1569 0
-1725 235 1726 0
-389 -8 391 0
-204 0
-529 -24 531 0
-737 -207 738 0
-876 229 0
-1718 1720 0
-1511 -282 0
-1366 222 0
-8 390 0
-12 11 0
-247 -121 0
-1227 85 1229 0
-1852 -185 1854 0
-149 1991 0
-70 69 0
-1659 1662 0
-1639 1640 0
-998 999 0
-1225 -212 0
-1835 -132 1837 0
-1476 -104 1478 0
-271 1593 0
-1845 185 1846 0
-1830 -286 0
-196 195 0
-415 416 0
-1979 265 0
50 781 0
-2032 -156 0
-489 -22 0
-1182 1183 0
-2028 2029 0
-219 1379 0
-1139 1144 0
-599 600 0
-316 1068 0
-1715 124 1717 0
-278 277 0
17 460 0
-968 208 0
-391 -9 0
-104 1482 0
-1507 1508 0
154 2006 0
-1543 109 1545 0
-100 1452 0
-598 601 0
-861 865 0
-58 57 0
-1757 -128 1759 0
-1444 1447 0
-1026 -255 0
-656 -40 657 0
-650 261 0
-341 342 0
-1691 1692 0
133 1839 0
159 0
-20 19 0
-227 -45 0
-449 215 450 0
-398 11 400 0
-1108 1109 0
-263 -111 0
-1172 167 1174 0
-666 667 0
-1389 96 1391 0
-1248 1251 0
-1577 112 1579 0
-1228 1229 0
-227 894 0
-467 238 0
-1049 1051 0
-135 1880 0
-395 -251 396 0
-1632 1633 0
-182 1539 0
-1787 -129 1789 0
-58 937 0
-729 732 0
155 156 157 158 249 250 0
-1501 283 1502 0
-828 -278 829 0
-1554 232 1555 0
-1758 1759 0
-1957 1958 0
-129 1816 0
-1175 1176 0
-245 1455 0
-8 7 0
-1741 127 1743 0
-730 -46 731 0
-1034 1035 0
-850 165 852 0
-1630 -171 1632 0
-72 71 0
-1295 1296 0
-1651 200 0
-938 -59 940 0
-1777 1781 0
-2054 161 0
135 1861 0
-820 -52 0
-732 735 0
-192 191 0
-874 880 0
-1699 1700 0
-1962 1964 0
-821 -277 0
-588 -304 0
-1752 249 1753 0
-1499 1502 0
-1176 169 0
-1221 -211 0
-135 1893 0
-523 188 524 0
177 1076 0
-823 -277 824 0
-1174 168 1176 0
-1941 1943 0
1 325 0
-243 639 0
-356 204 0
-87 1295 0
-991 -209 992 0
-1610 322 0
-204 567 0
-241 -75 0
-129 1793 0
-1984 -148 0
-1101 1102 0
-1147 -287 1148 0
127 1749 0
-1738 -236 0
-1562 1567 0
-28 563 0
-950 -270 0
-1023 -254 0
-1257 87 1259 0
-1297 -269 1299 0
-1255 -232 0
-263 -121 0
-118 117 0
-600 602 0
-863 866 0
-1611 -116 1613 0
-479 483 0
-1319 -180 1320 0
-1775 263 0
-18 469 0
-460 18 462 0
-1569 -231 1570 0
-954 -299 0
-1706 -312 0
-963 964 0
-29 576 0
-302 301 0
-1004 68 1006 0
-1753 250 0
-504 166 0
-1903 139 1905 0
-1629 1634 0
-1508 1515 0
-1429 1430 0
-1709 213 0
-1288 1289 0
-1064 -315 0
-462 19 0
-1167 1170 0
-51 822 0
-146 1982 0
-608 36 610 0
-269 -75 0
-988 992 0
-705 706 0
-871 56 873 0
-2055 2056 0
-44 43 0
-1151 -289 1152 0
-1201 210 0
-1512 1517 0
-1613 1614 0
-510 -165 0
-831 832 0
-1171 1172 0
-1030 1031 0
-389 390 0
-412 -268 0
-15 451 0
-1549 110 1550 0
-241 -121 0
-134 1848 0
-55 909 0
-374 -7 376 0
59 931 0
-1015 1016 0
-107 1536 0
-754 -46 756 0
-2002 2003 0
-642 39 644 0
-1214 1215 0
-124 1712 0
-573 574 0
-608 616 0
-252 251 0
-2001 2004 0
-595 177 0
-566 -205 0
-1943 1945 0
-1681 -121 0
-1277 -88 1278 0
-1539 1540 0
-792 -252 0
-1097 1098 0
-4 358 0
-612 618 0
-1922 1924 0
-1642 1649 0
-1124 77 1126 0
-1986 1988 0
-1278 -255 1279 0
-1685 1687 0
-1564 1568 0
-35 635 0
-1586 -257 0
-640 641 0
-776 780 0
-149 0
-499 500 0
-1113 -217 0
-2023 236 0
-178 177 0
40 665 0
-1407 1408 0
-518 523 0
-965 966 0
-1454 -245 0
-980 986 0
-1164 1165 0
-1043 1046 0
-1424 100 1426 0
-518 187 520 0
-858 -54 860 0
-1591 1592 0
-1931 1932 0
-1998 185 0
-793 -50 794 0
-267 -39 0
-823 826 0
-1325 1333 0
-1731 -126 1733 0
-1054 70 1056 0
-90 1314 0
-1810 1813 0
-40 677 0
-1008 1009 0
-70 1063 0
-984 988 0
-113 1596 0
-1615 -320 1616 0
-222 1689 0
-856 167 857 0
-742 750 0
-255 1283 0
-1148 1151 0
-988 -209 0
-969 973 0
-1784 266 0
-1673 1674 0
-287 1150 0
-2040 160 0
98 1406 0
-1453 1454 0
-1826 -132 1827 0
-890 893 0
-1857 1858 0
-1216 1217 0
-1415 1416 0
-1788 -130 1790 0
-1983 1984 0
-563 -203 564 0
-173 1967 0
-1560 -110 1562 0
-92 91 0
-1850 -184 1852 0
-1520 1521 0
-126 1755 0
-1786 -129 1788 0
-1952 322 1954 0
-375 376 0
-1220 1224 0
-102 1474 0
-1219 -209 1220 0
-1904 140 1906 0
-1187 -169 1188 0
-276 275 0
-229 1253 0
-1142 1143 0
-1433 212 1434 0
-495 496 0
-910 -57 912 0
-1829 -285 1830 0
-374 377 0
-1340 1344 0
-1282 1285 0
-273 -129 0
-1802 1807 0
-1262 1263 0
-267 -49 0
-247 1766 0
-757 761 0
-255 -75 0
-480 481 0
-820 821 0
-1724 1726 0
-217 1120 0
-156 2033 0
-1029 -256 0
-1751 248 1752 0
-558 561 0
-18 17 0
-501 164 503 0
-884 885 0
-249 -145 0
-613 216 0
-1082 1086 0
-1024 1027 0
-1004 1005 0
-2050 -275 2052 0
-427 -295 0
-1552 233 0
-1957 -142 1959 0
-1343 -92 1344 0
-684 686 0
-1771 1772 0
-1572 -234 0
-1320 -181 1321 0
-1340 -92 1342 0
-981 -64 983 0
-1120 -218 1121 0
-193 960 0
-547 548 0
-342 -3 344 0
-157 2045 0
-226 225 0
-625 628 0
-287 -51 0
-633 -217 634 0
-1077 179 1078 0
-1654 1655 0
-1796 1800 0
-1917 1919 0
-854 167 0
-1579 257 0
-1896 1898 0
-31 585 0
-104 1504 0
103 1488 0
-1873 1881 0
-1697 1698 0
-1960 1962 0
-369 8 371 0
-1056 1057 0
-78 1147 0
-1483 -262 1484 0
-325 2 327 0
-1154 1159 0
-1808 283 1809 0
-771 49 773 0
-488 -22 490 0
-1041 282 0
-713 46 715 0
47 769 0
-974 208 975 0
-1115 -217 1116 0
-1328 195 1330 0
53 849 0
-246 1456 0
-319 1615 0
-152 151 0
-127 1785 0
-1877 -200 1879 0
-7 389 0
-375 -7 0
-21 491 0
-42 697 0
-1843 1845 0
-195 1092 0
-773 50 775 0
-1338 1343 0
-1318 1321 0
-120 1680 0
-271 -93 0
-1480 -261 1481 0
-997 998 0
-1210 -82 1212 0
-1299 -270 0
-701 -315 0
-755 760 0
-486 -21 488 0
-1430 213 0
24 498 0
-1905 1906 0
-2011 -154 2013 0
-1123 1124 0
-1198 84 1200 0
-1062 -70 1064 0
-476 477 0
-805 52 807 0
-1461 104 1463 0
-438 -314 0
-640 38 642 0
-393 -10 394 0
-1322 1323 0
-1542 1549 0
-1585 1587 0
-247 -109 0
-664 40 666 0
-1080 1085 0
99 1431 0
-1889 138 1891 0
-1355 94 1357 0
-1047 -279 0
-759 762 0
-363 -203 364 0
-78 77 0
-883 -55 885 0
-1372 -219 0
-1248 -229 1249 0
-1585 -112 1586 0
-1701 -309 0
-400 12 402 0
-552 204 554 0
-873 227 875 0
-1064 1065 0
-93 1382 0
-99 1451 0
-680 682 0
-751 238 752 0
-943 946 0
-1005 253 1007 0
-1788 1794 0
-816 -50 818 0
-262 261 0
-1831 1832 0
-1190 1191 0
-797 -251 798 0
-962 969 0
-1312 182 0
-1948 -294 0
-1389 1390 0
-1367 -92 1369 0
-607 608 0
-478 21 480 0
-32 579 0
-419 14 420 0
-1894 1897 0
-2060 324 0
-1573 1574 0
-1883 -201 1884 0
-779 252 780 0
-463 20 0
-1331 1336 0
-1947 -293 1948 0
-186 -185 -152 -151 0
-11 409 0
-1863 200 0
-349 350 0
63 969 0
-1676 223 1678 0
-73 1108 0
-810 815 0
-911 912 0
-250 249 0
-68 1043 0
-1009 1014 0
-1097 76 1099 0
-512 -166 0
-271 -103 0
-567 -205 568 0
-1777 130 1778 0
-167 1186 0
-1206 209 1207 0
-1438 -99 1440 0
117 1619 0
-1115 1118 0
-1007 254 1009 0
-1661 -197 1662 0
-916 918 0
-277 496 0
-80 1190 0
-2053 160 0
-320 1617 0
-2013 -201 2015 0
-738 -208 0
-1683 1685 0
-121 1683 0
-2000 152 2002 0
-1498 1501 0
-1980 266 0
-1354 93 1356 0
-1603 116 1605 0
-1824 1825 0
-1975 147 1977 0
-1745 1746 0
-658 660 0
-1624 1627 0
-399 11 401 0
-939 943 0
-1162 1163 0
-1281 -256 1282 0
-1220 -210 1221 0
-1368 -93 1370 0
-2008 2009 0
151 1997 0
-900 58 902 0
-200 199 0
-1332 92 1333 0
-340 188 0
-1404 -320 0
-843 -304 845 0
-1566 -231 1567 0
-2052 -276 0
-241 -99 0
-258 257 0
-927 267 929 0
-307 1533 0
-50 817 0
-1018 -68 1020 0
-1427 211 1429 0
-1688 -223 0
-540 544 0
-1891 1892 0
-2051 -275 0
-1414 -169 1416 0
-75 1138 0
72 1071 0
-1411 171 0
-462 463 0
-594 177 596 0
-1665 -199 1666 0
-1994 -150 0
26 546 0
-1307 1311 0
-1671 1672 0
161 0
-122 1700 0
-1249 1252 0
-778 251 779 0
-1870 1871 0
293 0
-838 305 839 0
-287 580 0
-931 60 932 0
-787 788 0
-1050 1052 0
83 1202 0
269 1292 0
-126 125 0
-646 647 0
-1439 -100 1441 0
-183 1540 0
-1491 1495 0
23 513 0
-500 164 502 0
-1142 -78 0
-1289 270 1291 0
-1413 1414 0
-928 934 0
-1268 256 1269 0
-310 309 0
-1148 -288 1149 0
-513 24 515 0
-529 530 0
-1006 253 1008 0
-963 63 965 0
-1074 178 0
-1910 275 1912 0
-1937 -140 1939 0
-912 914 0
74 1094 0
-1155 1156 0
-674 297 0
41 688 0
-713 714 0
-435 -14 437 0
-65 1015 0
-52 51 0
-414 13 416 0
-965 64 967 0
-6 0
-908 246 0
-1621 1622 0
-752 239 753 0
-372 226 0
-1434 213 1435 0
-136 1894 0
-1570 -232 1571 0
-172 171 0
-915 -243 916 0
-1038 1039 0
-2004 2006 0
-1617 -321 1618 0
-897 898 0
-261 -87 0
-59 951 0
-1573 110 1575 0
-236 235 0
-241 -109 0
-89 1337 0
-1257 1266 0
-1805 1806 0
-783 253 784 0
-1183 -168 1185 0
-251 -37 0
-2019 156 0
-1022 -253 1023 0
-1958 -321 1960 0
-605 34 607 0
-1597 -115 0
-581 582 0
-935 270 0
-336 4 0
-1157 306 0
-1398 -317 1400 0
-1327 195 1329 0
-1261 1268 0
-1989 1990 0
151 0
-926 267 928 0
-843 847 0
-877 56 878 0
-1547 1548 0
-314 702 0
-1305 1310 0
-1181 -167 1183 0
-1161 308 0
-1991 -150 0
-354 203 356 0
-495 -277 0
-112 1590 0
-1872 1873 0
-764 767 0
-141 1941 0
-1731 1732 0
-1710 214 0
-239 997 0
-1141 -78 1143 0
-565 567 0
-1197 84 1199 0
-619 218 0
-53 858 0
-1770 1777 0
-1542 109 1544 0
-919 -245 920 0
-1241 -84 1243 0
-817 -51 819 0
-1267 255 1268 0
-1679 -120 1681 0
-1733 -233 1735 0
-2056 2057 0
-549 28 551 0
-1551 1555 0
-1044 -69 0
-1915 1916 0
-798 -252 799 0
-1493 1496 0
-506 509 0
-1473 1474 0
-306 305 0
-725 730 0
-968 972 0
-311 1996 0
-872 227 874 0
-721 206 722 0
-952 953 0
-1314 -179 1316 0
-571 -30 0
-369 370 0
-1325 92 1327 0
118 1620 0
-48 47 0
-570 -29 0
-912 -58 0
-76 1117 0
-112 111 0
-1861 1864 0
-939 -60 941 0
-694 695 0
-911 -57 0
-404 268 0
-452 457 0
-553 554 0
-232 231 0
-227 575 0
-1700 -309 1702 0
-71 1088 0
-1019 1020 0
-330 -163 332 0
-1282 -257 0
-1167 -307 0
-1425 100 1427 0
109 1549 0
-776 252 0
-1897 -138 1898 0
-699 701 0
-225 -17 0
-867 54 869 0
-36 636 0
-1645 1646 0
-425 -14 427 0
-1864 1867 0
-703 -316 0
-1102 1107 0
-209 -73 0
-1359 1365 0
-2049 2050 0
-1281 1284 0
-377 379 0
-130 1797 0
-100 99 0
-620 621 0
-1269 257 1270 0
-30 572 0
-158 157 0
-1387 1388 0
-1251 -230 1252 0
19 464 0
-1999 186 0
-561 563 0
-824 827 0
-284 283 0
-1128 287 1130 0
-503 504 0
-65 995 0
-379 -225 380 0
-1974 147 1976 0
-718 207 0
-138 1914 0
-1911 1912 0
-1149 1152 0
-1765 -249 0
-2002 153 0
-1129 1130 0
-1057 316 1059 0
-1090 -74 0
-1348 1351 0
-1635 -173 1636 0
-26 25 0
-1882 -200 1883 0
146 1974 0
-1454 1455 0
33 605 0
-146 145 0
-507 -163 0
-609 36 611 0
-1795 1799 0
-1916 1918 0
-891 894 0
-871 872 0
-593 176 595 0
-1914 -139 1916 0
134 1856 0
-314 0
-210 209 0
-686 -297 687 0
34 606 0
-1658 1661 0
-1274 1278 0
-837 304 838 0
-934 269 935 0
-1667 120 1669 0
-103 1503 0
-1196 1197 0
-870 56 872 0
-555 556 0
-1034 70 1036 0
-1075 1078 0
-1691 122 1693 0
-1899 -223 1900 0
-754 755 0
-1720 1722 0
-1698 312 0
-1943 -291 1944 0
-287 -39 0
-613 614 0
-1215 1220 0
-211 1448 0
-498 163 500 0
-193 0
-786 -49 788 0
-1287 269 1289 0
15 16 175 176 0
-1591 -114 0
-806 277 808 0
-930 269 0
-285 1993 0
-109 1581 0
-938 939 0
-422 -12 424 0
179 1310 0
-660 -260 661 0
-2045 2046 0
-417 418 0
-1525 309 1526 0
-1399 -317 0
-157 2034 0
-2030 2031 0
-1424 1432 0
-1889 1890 0
-2029 -235 2031 0
-658 -259 659 0
-280 279 0
-865 -167 866 0
-1612 -319 1614 0
-1840 183 1842 0
-1605 319 1607 0
-1762 -248 0
-691 314 693 0
-1446 1449 0
-84 1242 0
-191 -53 0
-883 888 0
-343 344 0
-1189 1190 0
-1690 -224 0
-22 21 0
-2056 293 0
-855 166 856 0
-48 786 0
-1492 106 0
-840 -52 842 0
-1557 -108 1559 0
-1685 -221 1686 0
-574 -227 0
-86 85 0
-1415 -169 0
-668 669 0
-1256 86 1258 0
-1580 258 0
-1620 171 1622 0
-1384 -96 0
-1376 -219 1377 0
-671 296 673 0
-1837 -301 0
-206 205 0
-1484 -263 0
-1861 136 1862 0
-1180 -80 1182 0
-1242 -85 1244 0
-1680 -121 1682 0
-1734 -234 1736 0
-1897 1899 0
-992 -210 0
-1776 1780 0
-1383 -95 0
-488 492 0
-1839 1840 0
-731 734 0
-311 -141 0
-1273 -87 1275 0
-1202 84 1203 0
-1213 1219 0
-576 -30 0
-1256 1257 0
171 1625 0
-1818 1819 0
-48 763 0
-247 1457 0
-355 203 0
-764 -238 765 0
-1789 -130 1791 0
86 1257 0
-1533 -308 1534 0
-1440 1441 0
-1283 -256 1284 0
-245 -75 0
-132 131 0
-1440 -100 0
-1397 -96 1399 0
-580 -288 0
5 365 0
-589 34 591 0
-1561 -110 1563 0
-879 228 880 0
-2048 -160 2050 0
-585 -32 587 0
-876 881 0
-1625 172 1626 0
6 366 0
-1380 -221 1381 0
-1720 233 0
-1885 1886 0
-1764 1767 0
-1905 140 1907 0
-1076 178 1077 0
-1949 1950 0
-1546 231 1548 0
-385 10 387 0
-365 6 367 0
39 664 0
-533 -26 535 0
-602 604 0
293 2057 0
-403 404 0
-287 -59 0
-655 -40 0
135 1885 0
-1011 253 1012 0
-670 295 672 0
-1632 -172 0
-12 411 0
-2016 2017 0
-1369 1370 0
-1662 -198 1663 0
-728 729 0
-1365 221 1366 0
-16 440 0
-486 491 0
-587 588 0
-1088 -72 0
136 1886 0
-266 265 0
-1194 82 1196 0
-1374 1377 0
-1631 1635 0
-801 50 803 0
-1354 1355 0
-1510 1516 0
-1885 136 1887 0
-746 238 748 0
-74 1109 0
-847 -305 848 0
-771 772 0
-1408 170 1410 0
-245 -85 0
-470 471 0
-49 793 0
-1679 1680 0
-329 330 0
-1174 1178 0
-740 47 742 0
-1226 84 1228 0
-790 795 0
-1878 1879 0
-154 2025 0
167 1177 0
-1116 1119 0
-1968 -144 0
-150 1995 0
-195 1349 0
-654 655 0
-1286 88 1288 0
-81 1191 0
-513 514 0
-748 239 0
-760 -48 761 0
-1441 1444 0
-84 1222 0
-1421 1422 0
-1988 -266 0
-1300 1303 0
-292 1947 0
-653 656 0
-1519 1524 0
-979 980 0
-1344 -195 1345 0
-1589 -112 0
-1783 265 1784 0
-235 -143 0
-318 317 0
-371 225 0
-920 -246 0
-1541 1542 0
-698 -313 0
-177 -53 0
-725 -45 727 0
-1211 -83 1213 0
-2003 2005 0
-22 495 0
-1772 130 1774 0
-1605 1606 0
-1864 199 1865 0
-213 -119 0
-637 -38 0
-958 959 0
-1678 224 0
-144 1966 0
-946 -268 947 0
-1672 221 1674 0
-287 -69 0
-337 339 0
-1687 1689 0
-1566 1570 0
-170 1419 0
-1 329 0
-420 295 421 0
-37 637 0
-1462 104 1464 0
-1793 -130 1794 0
-1488 1489 0
-501 502 0
-39 676 0
-1644 1650 0
-63 993 0
-180 179 0
-1717 125 0
-328 164 0
-1544 110 1546 0
-261 -75 0
-905 906 0
-1275 -88 0
-1624 173 0
85 1236 0
-445 18 447 0
-76 1139 0
-1412 172 0
-1820 -132 1822 0
-1124 1133 0
-1768 -250 0
-1890 223 1892 0
-1930 291 1932 0
-411 -267 412 0
-1323 1332 0
-1230 1231 0
-1933 1934 0
-1812 1815 0
-1089 1090 0
-442 443 0
-1755 -127 1757 0
-233 -121 0
-1071 177 1073 0
-802 811 0
-1997 1998 0
-1128 1135 0
-1763 -247 1764 0
-1631 -172 1633 0
-1981 -146 1983 0
-447 450 0
-860 -165 862 0
-106 105 0
-733 -205 734 0
-1675 1676 0
-483 259 484 0
-509 511 0
-1954 323 1956 0
-1739 1740 0
-1674 222 1676 0
-451 452 0
-863 -167 0
-850 855 0
-951 952 0
-2000 2001 0
-881 230 0
-1965 -144 0
-792 796 0
-1859 1860 0
-675 298 0
26 525 0
-862 -166 0
-1233 1239 0
-101 1473 0
-890 -228 0
-181 -97 0
-635 636 0
-45 730 0
-1683 -122 1684 0
-494 495 0
101 1458 0
56 898 0
-710 45 712 0
-1263 256 1265 0
-32 31 0
-1098 217 1100 0
-1821 1828 0
-1601 1602 0
-361 -6 362 0
-1480 1483 0
-277 -29 0
-1114 -76 1115 0
-33 597 0
-718 723 0
-947 -269 0
90 1305 0
-1723 1725 0
-2026 -155 2028 0
-392 -10 0
-936 -58 938 0
-1049 -280 0
31 581 0
-301 -121 0
-780 253 0
-1252 -231 0
-1145 -287 1146 0
-1284 -257 1285 0
-1300 -271 0
-1402 -319 0
-1158 307 0
-1785 1786 0
132 1832 0
-1023 1026 0
-494 -22 0
32 582 0
-1242 1247 0
-219 -83 0
-1985 -148 1986 0
-901 902 0
63 64 65 66 239 240 241 242 0
-1581 -110 1583 0
-240 239 0
-1742 128 1744 0
-1686 -222 0
-123 1727 0
-1942 -291 0
-1328 1329 0
-187 -15 0
-1702 -310 0
-861 -166 863 0
-1527 1528 0
-522 526 0
-886 887 0
-1059 317 1061 0
-765 768 0
-654 -39 0
-745 746 0
7 381 0
-1813 284 1814 0
-240 998 0
-726 -45 728 0
-1326 92 1328 0
-555 205 0
-1070 1071 0
-717 206 0
-137 1913 0
-697 -313 699 0
-1552 1556 0
-804 812 0
-1487 -264 0
-52 825 0
-859 -165 861 0
-147 1985 0
-82 1211 0
-1837 1838 0
-487 488 0
-106 1528 0
-1694 310 1696 0
-166 165 0
-857 168 0
-1395 1396 0
19 476 0
156 2022 0
-627 630 0
-394 -251 0
-1594 1595 0
-1834 302 0
-953 954 0
-1302 -271 1303 0
-1505 -105 1507 0
-1231 1238 0
-1522 308 0
-116 1599 0
-1906 273 1908 0
149 150 311 312 0
-1579 1580 0
16 443 0
-1028 -255 1029 0
-2027 -156 2029 0
-19 485 0
-39 656 0
-2041 2043 0
-1657 1660 0
-1359 220 1361 0
-996 997 0
-35 626 0
-972 976 0
-961 62 963 0
-409 -12 410 0
-1235 1240 0
-584 304 0
281 1500 0
137 1901 0
-1938 -141 1940 0
-46 733 0
-601 -176 602 0
-944 -268 0
-772 778 0
-1392 318 1394 0
-439 -16 0
-1462 1463 0
120 1668 0
-1719 1721 0
-1982 1985 0
-72 1089 0
-154 153 0
-674 675 0
-716 206 718 0
-1156 1160 0
-1407 169 1409 0
-415 13 417 0
-143 1968 0
-5 361 0
-545 26 547 0
-1865 1868 0
71 72 73 74 195 196 0
-1141 1145 0
-1349 -196 1350 0
-1419 -171 1420 0
-272 1594 0
-2046 -159 2048 0
-1713 -213 0
-679 681 0
-1989 -148 0
-1971 1972 0
-1324 1325 0
78 1154 0
-1855 134 1857 0
-1463 261 1465 0
-197 -97 0
-761 764 0
-1544 1550 0
-741 742 0
-108 1558 0
-80 79 0
-562 564 0
-805 806 0
-291 -105 0
-175 601 0
-1713 1714 0
-726 727 0
-101 1453 0
-1924 -276 0
-945 948 0
-925 926 0
-1008 254 0
-118 1629 0
-264 263 0
-1693 309 1695 0
-41 680 0
-560 -28 0
-295 684 0
-922 931 0
-1833 1834 0
-891 -227 892 0
-1391 1392 0
-1790 1795 0
-1455 1456 0
-468 469 0
-1821 -283 1823 0
-1156 306 1158 0
-6 5 0
-807 277 809 0
-1858 1862 0
-1474 1479 0
-1575 1576 0
-1477 -104 0
-203 -15 0
-409 411 0
113 114 115 116 299 300 301 302 0
-536 -188 0
-351 352 0
-770 777 0
111 112 113 114 271 272 273 274 0
-275 -147 0
-615 36 616 0
-1205 211 0
-1517 -284 0
-977 978 0
-349 4 351 0
-1317 1318 0
-676 677 0
-97 1436 0
-535 536 0
-40 658 0
-875 876 0
-214 213 0
-896 -230 0
-1498 282 1499 0
-110 1582 0
-307 -95 0
-60 945 0
-1094 1103 0
-1801 130 1803 0
-1865 200 1866 0
-191 0
-1695 310 1697 0
-2055 162 0
-860 861 0
-197 -107 0
-895 -229 896 0
-610 215 612 0
-1201 1205 0
-1578 257 1580 0
-1675 222 1677 0
-817 822 0
-27 569 0
-1405 98 1407 0
-1149 -289 0
-1545 110 1547 0
-1232 229 1234 0
-1044 1045 0
-1463 1470 0
-1384 1385 0
-397 398 0
-660 662 0
-1061 318 0
-539 543 0
-70 0
-1243 1244 0
-299 0
-97 1413 0
-481 484 0
-2006 201 2007 0
-801 802 0
-892 -228 893 0
-140 139 0
-390 -9 392 0
-2010 2011 0
-1503 -104 1505 0
-91 1343 0
-1204 1208 0
-1467 1472 0
-927 928 0
-1030 68 1032 0
-1447 1450 0
-1427 1428 0
-1496 282 0
-351 5 353 0
-324 323 0
161 2058 0
-1518 106 1520 0
-1893 1894 0
-176 603 0
162 2059 0
-657 -259 0
-322 0
155 2020 0
-326 163 328 0
-1436 1437 0
-727 -46 729 0
-789 790 0
-66 65 0
-193 1193 0
-191 708 0
-1898 1900 0
-648 649 0
-1001 67 1003 0
-853 854 0
-1373 1376 0
-1479 -104 1480 0
-186 185 0
-2016 154 2018 0
-907 245 0
-1489 105 1491 0
-970 207 971 0
-836 305 0
-2038 159 2040 0
-12 423 0
-610 617 0
-531 532 0
-185 -143 0
-789 -50 791 0
-930 935 0
-587 -303 0
-616 215 617 0
-16 452 0
-153 2024 0
-595 596 0
-149 1994 0
-793 797 0
-1157 1158 0
-1329 196 1331 0
-56 910 0
-2018 155 0
-735 738 0
-614 619 0
-715 716 0
-54 53 0
-1561 1562 0
-1276 -255 0
-1303 -272 0
-93 1373 0
-1395 319 0
-787 -49 789 0
-99 1442 0
-1760 -128 1761 0
-1962 -323 0
158 2038 0
185 0
-1944 1946 0
-1040 1041 0
-923 59 925 0
142 1950 0
-224 0
-899 900 0
-1875 -199 1877 0
-1765 1768 0
-1358 219 1360 0
-1444 -212 0
-238 237 0
83 1226 0
-967 207 0
-1051 -281 0
-111 1589 0
-1137 290 0
-456 -215 0
2 334 0
-134 1871 0
-750 237 751 0
-1259 1267 0
-982 987 0
-1686 1688 0
-1045 1047 0
-401 12 403 0
-1565 1569 0
-1926 141 1928 0
-1181 1186 0
-1628 1629 0
-2009 -153 2011 0
183 1843 0
-348 -188 0
-977 -62 979 0
-243 917 0
-1122 -220 0
-975 209 976 0
-874 228 876 0
-213 -107 0
-1805 132 0
-347 -187 0
-1655 -120 1657 0
-1944 -292 0
-744 751 0
-845 848 0
-120 1661 0
-629 -215 630 0
-114 1592 0
-1215 -209 1217 0
-1733 1734 0
-383 384 0
-1817 -131 1819 0
-1612 1615 0
-1 341 0
-541 -187 542 0
-1401 -318 1402 0
-1811 1814 0
-1627 174 0
-181 1538 0
-305 -69 0
-849 850 0
57 921 0
-188 187 0
-163 509 0
-80 1181 0
-241 -85 0
-665 41 667 0
-1495 1498 0
-1111 1115 0
-1475 1476 0
-2045 -158 2047 0
-970 974 0
-508 -164 0
-1177 168 1178 0
-376 -8 0
-229 -75 0
-381 8 383 0
-396 -252 0
-490 -259 0
-508 510 0
-69 1046 0
-1162 -78 1164 0
-1274 -88 1276 0
133 1855 0
-1416 1418 0
-1358 1359 0
-791 -251 0
-1050 -280 1051 0
-576 577 0
-435 436 0
-775 776 0
-558 -27 560 0
-114 113 0
-1175 168 0
-749 48 750 0
-1863 1866 0
-1609 321 0
-100 1445 0
-1519 307 1521 0
-1567 -232 1568 0
-376 378 0
-1436 -98 1438 0
-113 0
-53 882 0
-959 960 0
-846 -304 847 0
-298 297 0
-454 458 0
-1804 1808 0
-1901 138 1903 0
-517 518 0
-1832 301 1834 0
-299 -77 0
-1925 140 1927 0
-1976 148 1978 0
-701 703 0
-1221 1225 0
-38 638 0
-201 -143 0
-2049 -160 2051 0
-68 1024 0
-779 783 0
-1497 281 1498 0
-1022 1025 0
-1507 -106 1509 0
-64 994 0
-2051 2052 0
-1718 126 0
-140 1938 0
-40 39 0
-1609 1610 0
-622 623 0
-1747 248 0
-755 -47 757 0
-781 251 782 0
-1347 1350 0
-503 165 0
-160 159 0
-1270 258 0
-1362 94 1363 0
-521 525 0
-565 -204 566 0
-46 755 0
-976 210 0
-224 223 0
-810 279 0
-244 919 0
65 1000 0
-1067 -317 0
-1446 -212 1447 0
-1893 -136 1895 0
-505 506 0
-1652 1653 0
185 1999 0
-1614 1616 0
-1806 283 0
-1109 1114 0
-1210 1211 0
-569 570 0
-1745 247 1747 0
-466 237 467 0
-245 -93 0
-1360 220 0
-1521 308 1523 0
-1016 -67 1018 0
121 1691 0
-1977 1978 0
-575 -228 0
109 1573 0
-34 621 0
-1414 1417 0
-510 512 0
-1875 1882 0
-1697 311 0
-1529 -307 1531 0
-164 511 0
-59 942 0
-1918 1920 0
29 30 31 32 287 288 0
-578 -32 0
-873 874 0
-431 432 0
-577 -31 0
-1879 1884 0
-303 846 0
-1198 1199 0
234 1725 0
-635 -36 0
-652 -38 654 0
-1296 1301 0
-756 757 0
-1000 66 1002 0
-1276 1279 0
-851 165 853 0
-482 22 483 0
-1481 1484 0
-1538 -182 0
-402 267 404 0
-294 293 0
-34 598 0
-1382 1383 0
-1985 1987 0
-1152 -290 0
-1081 1082 0
-1844 1846 0
-940 941 0
-1967 -174 0
-63 985 0
-1402 1404 0
184 1845 0
-357 358 0
92 1353 0
-1742 1750 0
-36 35 0
-1144 1147 0
-124 1728 0
-1343 1346 0
-1970 1971 0
-651 262 0
-1586 1588 0
-2041 160 2042 0
-469 -19 471 0
-324 -323 -162 -161 0
-1258 87 1260 0
-47 785 0
61 62 191 192 193 194 0
-5 373 0
-673 297 675 0
82 1195 0
-220 219 0
-516 26 518 0
-329 -2 331 0
-362 364 0
20 466 0
-812 277 813 0
-1031 69 1033 0
-1065 1067 0
-1459 103 1461 0
-1426 1433 0
-1853 1854 0
-1520 307 1522 0
-94 1383 0
-424 425 0
-804 52 806 0
-978 -63 980 0
-1002 67 1004 0
-1649 198 1650 0
-1931 291 1933 0
-1191 1192 0
-1794 -263 1795 0
-1083 -178 0
-1707 124 1709 0
-2037 2038 0
4 350 0
-628 631 0
-88 87 0
-1756 -127 1758 0
-606 35 608 0
-659 -260 0
-1842 184 0
-1851 -184 1853 0
-71 1079 0
-1523 309 0
-1074 1075 0
-1953 322 1955 0
-2042 275 0
-1867 200 1868 0
-832 837 0
48 770 0
-297 -51 0
-25 557 0
-272 271 0
-20 486 0
-142 1958 0
-1841 1842 0
-1846 186 0
-1209 212 0
-1970 -146 0
-710 719 0
-1258 1259 0
-1869 202 0
-914 -243 0
-477 21 479 0
-731 -205 732 0
-1016 1021 0
-774 251 776 0
-1213 -84 1215 0
-289 1386 0
-1431 100 1432 0
-474 -237 0
-261 -93 0
-1279 -256 0
-1473 -102 1475 0
-1551 232 1552 0
-274 1923 0
-14 13 0
97 1421 0
-1583 1584 0
-714 721 0
-1740 1749 0
-1661 1664 0
-1447 -213 0
-581 32 583 0
-134 133 0
-9 393 0
-1000 1001 0
98 1422 0
-273 1595 0
-785 -48 787 0
-1293 271 1294 0
-1099 217 1101 0
-1995 -311 0
-198 197 0
-217 -45 0
-1854 -186 0
-459 -216 0
-554 205 556 0
-753 240 0
-1966 1967 0
-1086 -179 1087 0
-601 603 0
-530 -25 532 0
-1744 1751 0
-672 296 674 0
-1184 1185 0
-822 -52 823 0
-1063 1066 0
95 1389 0
-1378 -221 0
-1060 317 0
-1013 255 1014 0
-1951 1952 0
-1971 -241 0
-2008 -152 2010 0
-1722 234 0
-1509 1510 0
-296 686 0
-1370 -94 1372 0
-1887 137 1889 0
-1247 1250 0
-102 1454 0
-143 0
-683 685 0
-582 303 584 0
-946 949 0
-1009 255 0
-1743 128 1745 0
-1528 1533 0
-1782 264 1783 0
139 1925 0
106 1519 0
-463 465 0
75 1123 0
-1693 1694 0
-1917 -140 1918 0
-2033 2034 0
-405 406 0
-24 506 0
-1346 -195 1347 0
140 1926 0
-1110 1111 0
-2038 2041 0
-2018 2019 0
-1250 1253 0
-1334 196 1335 0
-589 590 0
-2035 -249 0
-849 54 851 0
-592 176 594 0
-268 267 0
-1051 1053 0
-1227 1236 0
-410 412 0
-493 -260 0
-108 1537 0
125 1739 0
-2017 2020 0
-993 994 0
-1353 1362 0
-1203 209 1204 0
-487 -21 489 0
-423 -13 425 0
-2012 -154 2014 0
-1040 281 0
-280 1052 0
-472 473 0
-1619 1620 0
-678 -41 0
-331 332 0
-990 -208 991 0
-98 1437 0
-11 422 0
-10 9 0
-387 251 0
108 1542 0
-1668 121 1670 0
-1759 1762 0
-1907 273 1909 0
-291 1945 0
-1356 94 1358 0
-1732 -233 1734 0
-21 494 0
-1744 247 1746 0
-74 73 0
-1075 179 0
-1292 270 1293 0
-1297 1298 0
-1176 1179 0
-1439 1443 0
-1390 317 1392 0
-414 419 0
-357 -4 359 0
-734 737 0
-194 193 0
-380 -226 0
-553 204 555 0
-336 338 0
-66 1016 0
55 897 0
-714 205 716 0
-1966 -173 0
-631 -217 0
-534 539 0
-981 982 0
-1689 -223 1690 0
103 1468 0
-840 841 0
152 1998 0
-661 663 0
-10 395 0
-962 63 964 0
-98 1414 0
47 749 0
-78 1163 0
-1759 -247 0
-647 260 649 0
131 1831 0
-1073 178 1075 0
-62 61 0
-25 537 0
-461 464 0
-454 -18 456 0
79 80 81 82 193 194 0
-1238 230 1239 0
-120 119 0
-985 989 0
-1208 211 1209 0
-709 44 711 0
-907 908 0
-246 245 0
-152 2009 0
-360 -6 0
-602 -177 0
24 514 0
-31 578 0
-297 953 0
-1232 1233 0
-359 -5 0
-727 731 0
-1091 1092 0
-1937 1938 0
-320 0
-902 243 904 0
-436 -313 438 0
-868 877 0
-1796 -265 0
-1154 305 1156 0
-1812 285 0
-2019 2021 0
-221 -99 0
-1822 -283 1824 0
-108 107 0
-1130 1136 0
-1494 1497 0
-1757 1761 0
-1820 1821 0
-833 834 0
-889 -227 890 0
-451 -16 453 0
-1741 1742 0
-391 392 0
-1600 1601 0
136 1864 0
-418 295 0
-1299 1300 0
15 442 0
-915 917 0
-794 798 0
-1377 1380 0
-390 393 0
-532 538 0
-1925 1926 0
-1508 -281 1510 0
-27 561 0
-254 253 0
-1396 320 0
75 1103 0
119 1667 0
-1945 1947 0
-1596 -114 0
-1197 1203 0
-1616 -321 0
-657 659 0
-229 -63 0
-1638 119 1640 0
-536 540 0
-1853 -185 0
-1021 -68 1022 0
-1482 1485 0
-1858 136 1860 0
-1361 1366 0
-1163 -305 1165 0
-1667 1668 0
-1459 1468 0
-1823 1829 0
-2 330 0
-1036 279 1038 0
-611 215 613 0
-1879 -201 0
-1900 -224 0
-477 482 0
151 2000 0
-1305 179 1307 0
-1714 -214 0
-700 702 0
-1207 210 1208 0
125 1719 0
-1602 -302 0
-1787 1788 0
-1992 1993 0
-642 643 0
-1918 -273 0
-1851 1852 0
-1442 -100 1443 0
-1880 -136 1881 0
33 589 0
-1364 220 1365 0
77 1153 0
-1409 1410 0
-1671 122 1673 0
-242 241 0
-295 -31 0
-967 968 0
-1331 197 0
-1416 -170 0
-1831 132 1833 0
-121 1699 0
-1529 1530 0
-1370 1374 0
93 1362 0
-45 754 0
-1593 1594 0
-1636 -174 0
-1833 301 0
-1908 274 1910 0
147 148 149 150 285 286 0
-809 278 0
-745 237 747 0
-115 1598 0
-880 229 881 0
-2059 2060 0
-709 710 0
55 877 0
-1043 -69 1045 0
-1938 1941 0
-1291 1294 0
-1271 1272 0
107 108 181 182 183 184 0
-2003 154 0
-489 490 0
-50 797 0
-253 -57 0
-870 878 0
-168 167 0
-688 689 0
-971 975 0
-267 948 0
105 1494 0
-1596 1597 0
-1785 -128 1787 0
-1801 1802 0
-1417 1419 0
-1680 1683 0
-2037 158 2039 0
-366 7 368 0
-892 895 0
-1186 -168 1187 0
-492 -259 493 0
-1490 105 1492 0
-480 22 0
-1558 1565 0
-17 457 0
-1450 -214 0
-590 175 592 0
-115 1611 0
-916 -244 0
-94 93 0
2 326 0
-521 26 522 0
-1522 1523 0
-1983 -147 0
-760 763 0
-1143 -287 0
-1727 1728 0
-335 3 0
-1195 83 1197 0
-2021 235 0
-439 440 0
-358 -5 360 0
-1467 263 0
-780 784 0
-1144 -78 1145 0
-1847 1848 0
-397 10 399 0
-1504 1513 0
-1405 1406 0
-681 683 0
-944 947 0
-519 187 0
-1163 1168 0
-405 -10 407 0
-62 957 0
-1143 1146 0
-1264 1265 0
-221 1687 0
-898 57 900 0
-1748 249 0
-1109 -75 1111 0
-1949 142 1951 0
-158 2035 0
-1633 -173 0
-1369 -93 1371 0
-1764 -248 1765 0
-1896 -138 0
-901 58 903 0
-885 889 0
-953 -298 0
-1589 1590 0
-1229 86 1231 0
-995 -66 0
-564 566 0
-827 830 0
-807 808 0
-1574 111 1576 0
-1063 -315 1065 0
132 1810 0
-87 1277 0
-1026 1029 0
-1289 1293 0
-1553 231 1554 0
-241 -93 0
-365 366 0
-630 -216 631 0
-994 -65 0
-1773 1774 0
119 1647 0
87 1286 0
-680 -42 681 0
-690 691 0
-1803 1804 0
-549 550 0
-1218 -84 1219 0
-2057 294 0
-1237 229 1238 0
-1712 -213 1714 0
-228 227 0
88 1287 0
-1856 1861 0
-688 42 690 0
-1656 1657 0
-1919 1921 0
-1422 99 1424 0
-887 -227 0
-1912 276 0
-1916 -140 0
-666 41 668 0
-299 1600 0
-1104 217 1105 0
-485 -20 487 0
-1641 1642 0
-141 1957 0
-1981 1982 0
-866 -168 0
-1860 1863 0
-283 -113 0
-1476 1480 0
77 1133 0
-1915 -139 0
-1873 -136 1875 0
-814 279 815 0
-1058 1059 0
-796 -253 0
-1964 -324 0
-1277 1280 0
-1571 -233 1572 0
-623 -36 625 0
-388 252 0
-767 -239 768 0
-2024 2025 0
-343 -3 345 0
-1383 1384 0
-514 521 0
-598 -175 600 0
-1218 1222 0
-118 1653 0
-1053 -282 0
-2058 162 0
-1503 1504 0
157 2037 0
-293 -149 0
123 1715 0
-1203 1207 0
-1907 1908 0
-1145 1148 0
-1125 1126 0
-29 571 0
-478 479 0
-131 1835 0
-1344 1347 0
124 1716 0
4 339 0
-1472 264 0
-1245 1246 0
-1946 -293 0
-428 -14 429 0
-1642 197 1644 0
1 333 0
-13 435 0
-852 166 854 0
-1311 181 1312 0
-803 804 0
-1066 1068 0
-1779 264 1780 0
-1884 -202 0
-9 405 0
-142 141 0
-1465 1471 0
-1499 283 0
115 1603 0
-867 868 0
-527 189 528 0
-586 -303 588 0
-1639 119 1641 0
-573 -226 0
-95 1384 0
-1775 1776 0
-88 1280 0
-1491 106 1493 0
-759 -237 0
-868 55 870 0
-1192 1193 0
-528 190 0
-545 546 0
-332 -164 0
-572 -225 0
199 1867 0
-1754 1755 0
-1633 1636 0
-604 -178 0
-609 610 0
-1959 1960 0
-1382 -94 0
-835 304 0
-1421 98 1423 0
-1794 1798 0
-331 -163 0
-72 1080 0
-1866 201 0
-205 736 0
-1958 1961 0
-1977 148 1979 0
-147 1989 0
-68 67 0
-1637 1638 0
-26 558 0
-1779 1783 0
-299 -95 0
-839 306 0
-1375 1378 0
-1701 1702 0
-1054 1055 0
-413 414 0
-641 39 643 0
-269 -67 0
-237 -35 0
-257 -93 0
-669 295 671 0
-309 1703 0
-1727 -124 1729 0
-917 -244 918 0
-36 629 0
-1500 282 1501 0
-290 1387 0
-1700 1703 0
-267 -21 0
-1316 1320 0
-2026 2027 0
-10 0
-929 268 0
-655 657 0
-91 1367 0
-1521 1525 0
-1814 285 1815 0
-1641 120 1643 0
-597 598 0
-1117 1120 0
-1406 169 1408 0
45 739 0
-231 -99 0
-1240 232 0
-702 -315 703 0
-918 920 0
-82 1192 0
-1563 1564 0
-649 261 651 0
-794 -251 795 0
-1442 1445 0
-1469 261 1470 0
87 1266 0
-1921 -274 1922 0
-1946 1948 0
-223 -123 0
-685 -297 0
-1664 -198 1665 0
-49 816 0
-1646 1651 0
13 419 0
-1747 1748 0
-522 187 523 0
-1024 -253 1025 0
-1656 -120 0
-664 665 0
-113 1591 0
-825 -277 826 0
-1895 -137 0
-202 201 0
-621 626 0
-2043 275 2044 0
-1688 1690 0
-643 40 645 0
-1567 1571 0
-1290 1291 0
-2014 -201 0
-1630 1631 0
-54 859 0
-1243 -85 1245 0
-1920 -274 0
-1660 -198 0
-470 -19 472 0
-406 -11 408 0
-464 466 0
-707 708 0
-904 244 906 0
-1534 -309 1535 0
-993 -64 0
131 1807 0
-1460 103 1462 0
-1955 1956 0
-377 -8 378 0
-299 -105 0
-1418 -171 0
-984 -208 0
-1173 1174 0
-43 724 0
-1329 1335 0
61 961 0
-1032 1033 0
-385 386 0
-546 27 548 0
-1251 1254 0
-1388 -292 0
-1993 -286 0
-979 -63 981 0
-746 752 0
-1168 -306 1169 0
-425 429 0
-128 127 0
-550 203 552 0
-1165 -306 1167 0
-1998 1999 0
-2001 153 2003 0
-83 1218 0
-852 856 0
-848 -306 0
-1230 86 1232 0
-1314 1319 0
-164 0
143 144 173 174 0
-829 -279 830 0
-312 311 0
-893 -229 0
-1619 118 1621 0
-1432 211 1433 0
-1760 1763 0
-833 303 835 0
-1119 1122 0
-1099 1100 0
-317 1401 0
-1836 -301 1838 0
-217 -53 0
-1540 -184 0
-310 1705 0
-1474 -103 1476 0
-1847 -134 1849 0
-636 -37 0
-321 1961 0
-1146 -288 0
-1750 247 1751 0
-1623 1624 0
-636 637 0
-1986 -265 0
-778 782 0
-421 296 0
-174 173 0
-1295 -88 1297 0
-139 1937 0
-1231 229 1233 0
-2022 235 2023 0
-1244 1248 0
-338 187 0
-884 -55 886 0
-961 962 0
-344 -4 346 0
-1166 1167 0
-943 -267 944 0
-519 520 0
-1308 180 0
-1092 -196 0
-520 524 0
91 1352 0
-583 584 0
-1286 1287 0
-1298 -270 1300 0
59 60 297 298 299 300 0
-844 845 0
-1091 -195 0
-1991 1992 0
-986 990 0
-1001 1010 0
-42 41 0
-350 5 352 0
-1280 -255 1281 0
-1327 1334 0
-273 -121 0
-1352 92 1354 0
-1138 -76 1140 0
-689 313 691 0
-1758 -128 0
-2 342 0
-325 326 0
-806 813 0
-1802 131 1804 0
-1874 1875 0
-523 527 0
-33 620 0
-692 314 694 0
45 719 0
-1085 -178 1086 0
-1005 1012 0
-85 1247 0
-1809 284 0
-661 -261 0
-241 999 0
-650 651 0
-1654 -119 1656 0
-1616 1618 0
-1039 281 1041 0
-1212 1213 0
-57 936 0
-1485 -262 1486 0
-556 206 0
-1084 -179 0
-1513 -106 1514 0
-2058 2059 0
-195 -81 0
-1233 230 1235 0
-318 0
-526 188 527 0
-1979 1980 0
-217 -63 0
-308 307 0
-1537 1538 0
-1621 171 1623 0
-1945 -292 1946 0
-1095 1096 0
-788 -50 790 0
-954 955 0
-1773 130 1775 0
-1959 -321 0
-497 24 499 0
-1317 -180 0
102 1459 0
-676 -40 678 0
-1253 -230 1254 0
-1620 1625 0
-371 372 0
-458 -215 459 0
-747 238 0
-424 -13 426 0
-1955 323 0
-1984 1986 0
-1158 1161 0
-57 913 0
-1138 1139 0
-497 498 0
-1401 1403 0
-1659 -197 1660 0
-261 -49 0
-176 175 0
-696 697 0
-475 -238 0
-318 1403 0
-743 48 745 0
-1483 1486 0
-43 704 0
-1185 -169 0
-1160 307 1161 0
-1342 1345 0
-73 1090 0
-448 18 449 0
-67 1021 0
-313 700 0
-1435 214 0
-1766 -248 1767 0
-960 -194 0
-1929 1930 0
-579 580 0
-1184 -168 0
-1808 1811 0
-144 1969 0
-1261 255 1263 0
-1546 1551 0
-1006 1007 0
-646 259 648 0
-359 360 0
-763 -237 764 0
-1072 177 1074 0
-1866 1869 0
-86 1272 0
-327 163 0
8 382 0
-1084 1087 0
-986 -207 987 0
-1640 120 1642 0
-1562 -231 1564 0
-1634 -172 1635 0
