p cnf 852 1596
-102 101 0
-358 26 360 0
-243 247 0
-351 -73 0
-442 446 0
-426 427 0
-600 125 0
-4 156 0
21 329 0
-536 38 538 0
-408 -114 0
-709 712 0
-69 255 0
-28 27 0
-610 611 0
-741 -54 743 0
-489 492 0
-815 816 0
-87 -23 0
-466 475 0
-818 109 819 0
-40 583 0
66 830 0
-468 34 470 0
-315 -21 317 0
-29 449 0
-778 61 780 0
-734 55 736 0
-470 477 0
-504 133 506 0
-556 559 0
-314 321 0
-40 560 0
-831 67 0
-318 323 0
-634 -46 636 0
-372 -25 374 0
-357 25 359 0
-591 -115 592 0
-723 -135 0
-52 707 0
-696 121 697 0
-330 123 332 0
-6 185 0
15 16 17 18 111 112 113 114 0
-155 -87 0
-146 147 0
-506 134 508 0
-375 -91 0
-95 -37 0
-224 227 0
-24 23 0
-481 -33 483 0
-811 812 0
-388 28 390 0
-306 310 0
-652 -98 0
-670 671 0
-286 288 0
-228 229 0
-172 -99 0
-22 334 0
-651 -97 0
-3 167 0
-213 214 0
-192 8 0
-443 82 444 0
-590 -42 591 0
-154 156 0
-212 -11 214 0
-685 51 687 0
-492 -94 493 0
-76 75 0
-382 -92 383 0
-436 442 0
-28 416 0
-47 668 0
-12 217 0
-656 50 658 0
37 518 0
-487 -93 488 0
-2 1 0
-584 585 0
-142 143 0
-122 121 0
-624 628 0
-483 487 0
-847 848 0
-362 368 0
-377 -91 378 0
-799 64 801 0
53 732 0
-305 22 306 0
-64 821 0
-730 731 0
-721 -52 723 0
-651 652 0
-154 -4 155 0
-686 694 0
-209 210 0
-834 121 0
-37 551 0
-160 5 162 0
-113 412 0
-560 -99 561 0
-627 84 628 0
-393 394 0
-296 -82 0
-714 135 716 0
-214 216 0
-119 -41 0
-136 135 0
-804 -63 806 0
-112 263 0
-198 80 0
77 0
73 430 0
-655 49 657 0
-777 60 779 0
-319 320 0
-343 72 344 0
-249 -16 251 0
-523 526 0
-520 87 522 0
-49 674 0
-742 747 0
-447 83 448 0
-279 -131 280 0
-592 -116 593 0
-247 71 248 0
-707 710 0
-406 409 0
-684 693 0
-178 7 0
65 817 0
-789 793 0
-695 120 696 0
-190 -111 0
-50 49 0
-570 571 0
-90 -89 -54 -53 0
-650 -96 0
-820 -64 822 0
-616 45 618 0
-127 768 0
-649 -95 0
-763 -117 0
-453 454 0
-220 13 222 0
-13 237 0
-105 499 0
-752 57 754 0
-195 196 0
68 835 0
-96 95 0
-457 461 0
-762 764 0
-378 381 0
-641 645 0
-761 -58 0
-50 677 0
-703 706 0
-787 792 0
-20 290 0
-326 -104 327 0
-157 -88 0
-46 45 0
-110 109 0
-175 -100 0
-384 -94 0
-551 552 0
-550 102 0
-219 12 221 0
-56 759 0
-293 294 0
-4 168 0
-604 127 605 0
-172 175 0
-838 -67 840 0
-618 619 0
-816 109 0
-501 -108 0
-176 177 0
-625 85 0
-254 257 0
-486 -34 487 0
-380 383 0
52 714 0
-219 220 0
-181 183 0
-193 129 0
-21 321 0
-622 626 0
-235 -103 236 0
-685 686 0
-418 -133 0
-544 545 0
-82 81 0
-559 -100 0
-490 493 0
-830 833 0
-169 170 0
-628 85 629 0
-795 796 0
-674 677 0
-581 118 0
31 465 0
-792 -62 793 0
67 833 0
-552 -39 554 0
-91 -19 0
-557 560 0
-233 -103 0
-153 155 0
26 386 0
-174 -99 175 0
1 0
32 466 0
-265 18 267 0
-328 -106 0
-489 -93 490 0
-677 680 0
-171 -6 0
-62 804 0
-654 663 0
-420 421 0
-364 93 0
29 433 0
-462 -82 463 0
-738 56 739 0
-563 -100 564 0
-299 21 301 0
-162 163 0
60 770 0
-788 789 0
-12 229 0
-267 268 0
-486 489 0
-87 -31 0
-558 -99 559 0
-179 8 0
-35 510 0
-150 151 0
-31 480 0
-130 129 0
-200 -79 202 0
-707 -119 708 0
-52 722 0
-448 84 0
-449 -30 451 0
-733 738 0
-193 194 0
-155 157 0
-287 81 288 0
-479 96 0
2 140 0
-500 -107 0
-779 61 781 0
-518 519 0
-737 740 0
-528 -87 530 0
-717 718 0
-56 55 0
-514 -134 515 0
-613 -128 0
-325 -103 326 0
-843 844 0
-722 725 0
-48 669 0
-159 164 0
-260 261 0
-600 601 0
42 599 0
33 34 35 36 105 106 107 108 0
-310 104 311 0
-185 -7 187 0
-804 807 0
-416 -131 0
-145 4 147 0
-312 106 0
-140 69 0
-472 94 474 0
-273 -18 275 0
-769 770 0
13 14 119 120 0
-186 187 0
-589 593 0
-851 852 0
-735 56 737 0
123 420 0
-671 675 0
-610 -126 612 0
-253 254 0
45 622 0
65 829 0
-442 81 443 0
-493 -95 494 0
-437 438 0
62 796 0
-116 115 0
-722 -135 724 0
-608 -125 610 0
-698 699 0
-19 313 0
-43 630 0
30 434 0
-309 103 310 0
-579 116 580 0
-770 77 772 0
-54 742 0
-504 505 0
20 282 0
-724 -136 0
-380 -92 381 0
-657 50 659 0
-104 103 0
-829 830 0
-731 90 0
-324 328 0
-387 388 0
-444 448 0
-167 168 0
-667 110 0
-691 692 0
-48 649 0
-30 29 0
-249 250 0
-453 -32 455 0
69 0
-205 11 207 0
-14 238 0
-119 710 0
-708 -120 709 0
-433 434 0
-575 579 0
-698 -50 700 0
75 432 0
-647 -47 0
-690 120 692 0
-788 -61 790 0
-250 -69 252 0
-418 419 0
-758 759 0
-159 5 161 0
-748 -101 749 0
-458 462 0
-743 744 0
-321 -22 322 0
-301 302 0
-160 161 0
-500 501 0
-763 765 0
-379 382 0
-754 58 756 0
-664 107 665 0
-170 -6 172 0
-704 707 0
-320 324 0
-706 -120 0
-231 -14 233 0
-243 70 245 0
-557 -40 558 0
-305 309 0
69 141 0
-21 333 0
-90 89 0
-672 673 0
-814 818 0
-518 38 520 0
-230 231 0
-9 199 0
-231 235 0
-580 117 581 0
-133 514 0
-25 376 0
-702 -52 0
-371 376 0
-16 15 0
-598 599 0
-297 298 0
-87 -9 0
-638 642 0
-61 803 0
-361 362 0
-194 130 0
-609 -126 611 0
-623 627 0
-109 -55 0
-263 -113 0
-603 605 0
67 845 0
63 811 0
16 241 0
-4 3 0
-223 224 0
-438 81 440 0
-768 -128 0
-533 -88 534 0
-759 -57 761 0
-530 -88 532 0
-11 228 0
57 58 127 128 0
-765 -118 0
-339 71 341 0
-732 733 0
-411 -115 0
-191 -112 0
45 46 47 48 95 96 97 98 0
-523 89 0
-566 40 568 0
-111 262 0
-463 -83 464 0
-275 276 0
-87 -19 0
-333 334 0
-212 215 0
-602 126 603 0
-737 101 0
-373 -26 375 0
-677 -107 678 0
-799 800 0
-678 681 0
-138 137 0
-313 -20 315 0
-429 73 0
-699 -51 701 0
-594 -115 595 0
-304 104 0
-537 39 539 0
-739 101 740 0
-410 -114 411 0
-477 94 478 0
-201 202 0
23 355 0
-400 401 0
-278 -131 0
-802 98 0
-298 305 0
-64 63 0
-407 -113 408 0
-22 325 0
32 445 0
-46 642 0
-17 260 0
-111 -13 0
-119 -17 0
-692 121 0
-467 468 0
-507 135 509 0
48 654 0
-365 26 366 0
-378 -92 0
-530 534 0
-736 56 0
-242 69 244 0
-572 573 0
-271 272 0
-658 107 660 0
-335 336 0
-214 -12 0
-757 118 0
-17 273 0
-455 456 0
-684 51 686 0
-555 -40 0
56 751 0
-295 -81 0
-476 93 477 0
-197 198 0
-459 463 0
68 846 0
-189 -111 191 0
-522 523 0
-240 16 242 0
-119 -27 0
-60 59 0
-261 -111 0
-564 -101 565 0
-124 123 0
-349 -72 351 0
-670 -49 672 0
-42 607 0
-138 0
-16 250 0
-515 -135 0
-553 -39 555 0
-81 -23 0
-639 -83 640 0
42 578 0
-587 -115 589 0
-458 -81 459 0
-710 -120 711 0
-773 774 0
-468 476 0
-632 633 0
-829 66 831 0
-511 514 0
-190 191 0
-223 14 0
36 503 0
-593 597 0
-472 478 0
-161 6 163 0
-216 -91 0
-374 375 0
-285 80 286 0
-819 110 0
-30 450 0
-20 314 0
-38 37 0
-65 837 0
-466 33 468 0
-772 78 0
-806 -64 0
-775 -77 0
-678 -108 679 0
-242 243 0
-59 773 0
-766 767 0
-586 -42 588 0
-437 32 439 0
-521 88 523 0
-471 93 473 0
-84 83 0
-239 -120 0
-360 91 362 0
-633 -46 635 0
-238 -119 0
-414 -116 0
-842 -121 844 0
71 343 0
-171 172 0
-421 125 423 0
-797 798 0
-283 79 0
-221 13 223 0
-355 356 0
-676 -108 0
-34 33 0
-98 97 0
-301 22 303 0
1 139 0
-559 562 0
-438 443 0
-9 211 0
-623 83 624 0
-430 74 0
-422 423 0
-821 826 0
-281 282 0
-45 638 0
41 598 0
-606 607 0
-485 488 0
-575 115 576 0
-825 828 0
-364 369 0
-583 590 0
-630 -44 632 0
-849 -68 851 0
-381 -93 0
-654 49 656 0
-790 791 0
-87 533 0
-348 349 0
-577 117 0
-51 721 0
-836 122 0
-12 11 0
89 731 0
-411 414 0
55 738 0
-10 200 0
-727 -137 728 0
-61 792 0
-70 69 0
-95 650 0
-57 762 0
-415 416 0
-846 137 848 0
13 225 0
-584 -41 586 0
-839 -67 841 0
-789 -62 791 0
-158 4 160 0
-215 217 0
-291 -79 293 0
-251 -69 253 0
22 309 0
-58 57 0
38 519 0
-534 -89 535 0
-787 -61 789 0
-33 495 0
-341 342 0
-726 -137 0
-282 79 284 0
-422 125 0
-20 19 0
-131 417 0
-744 748 0
-724 726 0
-661 108 0
-482 -33 484 0
-161 165 0
-556 -99 0
-766 -58 0
-467 33 469 0
-848 138 0
-16 259 0
-517 -136 0
-8 7 0
-690 696 0
-407 410 0
-444 83 0
-72 71 0
-335 -123 0
-519 87 521 0
-497 -36 0
-631 638 0
-135 725 0
-269 130 271 0
-469 34 471 0
-659 660 0
74 431 0
-338 343 0
-779 780 0
-106 500 0
-118 117 0
-797 63 799 0
-345 74 0
-511 -133 513 0
-342 345 0
-546 40 547 0
-355 24 357 0
-647 648 0
-506 507 0
-601 126 0
-44 43 0
-123 424 0
5 164 0
-831 832 0
-47 648 0
-389 390 0
-588 589 0
-605 128 0
-176 6 178 0
-399 116 0
-259 -17 0
-389 28 391 0
-514 516 0
-592 596 0
-315 316 0
-28 409 0
-428 30 0
-392 398 0
-577 581 0
-499 500 0
-780 62 782 0
-413 -115 414 0
-502 36 504 0
-771 77 0
-460 464 0
-824 825 0
-760 -57 0
-538 39 540 0
-821 -65 823 0
-638 -46 639 0
-401 406 0
-381 384 0
-264 -114 0
-311 105 312 0
-566 567 0
-2 151 0
-747 -56 748 0
-706 709 0
-562 -101 0
-139 2 0
-136 0
-750 751 0
-290 -79 292 0
59 777 0
-832 834 0
-428 429 0
-569 42 571 0
-65 826 0
-496 -35 0
-541 99 543 0
-92 91 0
-445 81 446 0
-495 -34 0
-390 397 0
-248 72 0
-146 4 148 0
-659 107 661 0
-452 458 0
-816 819 0
-394 399 0
-495 496 0
-637 641 0
-286 81 0
-656 664 0
-480 481 0
-820 821 0
-119 -35 0
-558 561 0
-18 17 0
-280 -132 0
-578 115 579 0
-237 238 0
-60 774 0
-845 68 847 0
-363 364 0
-181 111 0
-480 -32 482 0
-439 81 0
-774 -77 776 0
-484 -34 0
-512 -133 0
-25 400 0
41 574 0
-796 63 798 0
-289 290 0
-148 149 0
-60 787 0
-318 -103 320 0
44 615 0
-614 615 0
-473 474 0
-397 114 398 0
-813 814 0
-526 90 0
-55 758 0
-308 312 0
-571 576 0
-450 457 0
-228 -12 230 0
-539 40 541 0
-32 481 0
-113 264 0
7 180 0
-433 30 435 0
-764 -117 765 0
-303 103 0
-740 102 0
-289 -20 291 0
-206 12 208 0
-105 -25 0
73 0
-560 563 0
-540 541 0
55 750 0
-759 762 0
-10 212 0
-78 77 0
-431 75 0
-703 -119 0
-806 808 0
9 203 0
-402 403 0
-346 -24 348 0
-606 -42 608 0
-844 -122 0
-691 120 0
-825 -109 0
-262 -112 0
-795 62 797 0
64 812 0
-843 -121 0
-222 226 0
-847 137 0
-144 145 0
-716 136 718 0
-168 -5 170 0
-354 -74 0
-469 470 0
-767 -127 0
-152 -3 0
-255 -70 256 0
-470 93 472 0
-329 22 331 0
-803 -62 805 0
-218 -92 0
-673 676 0
-552 557 0
-653 654 0
-532 535 0
-211 212 0
-499 -106 0
-320 -104 0
-615 622 0
-536 537 0
-26 379 0
-5 173 0
-274 277 0
-216 218 0
-322 -103 323 0
-199 -10 201 0
-619 624 0
-599 602 0
-99 -15 0
-34 496 0
-232 -14 0
-263 264 0
-662 667 0
-725 727 0
-220 225 0
-810 -98 0
-113 -21 0
-807 -64 808 0
-209 91 0
-67 849 0
-101 -47 0
-715 135 717 0
-360 367 0
54 730 0
-32 461 0
-126 125 0
-545 550 0
-646 647 0
-743 -55 745 0
-618 46 620 0
-782 85 0
-317 -22 319 0
-529 530 0
124 421 0
-163 99 0
-408 411 0
-713 52 715 0
-349 353 0
-713 714 0
-52 51 0
27 28 131 132 133 134 0
5 176 0
-746 -101 0
-839 840 0
-192 193 0
-99 -25 0
-513 515 0
6 177 0
-41 590 0
2 143 0
-598 42 600 0
-490 -94 491 0
-186 -7 188 0
-275 -129 0
-107 501 0
-292 -80 294 0
-259 260 0
-576 116 577 0
7 0
-254 -71 0
-358 366 0
-800 97 802 0
-1 150 0
-119 239 0
-709 -121 0
-253 -70 0
-642 -83 643 0
-824 -66 0
-124 425 0
-465 32 467 0
-705 708 0
-182 111 183 0
-510 511 0
-107 -39 0
-48 47 0
-241 69 243 0
-112 111 0
-124 0
-704 -52 705 0
-553 554 0
-515 517 0
-256 -71 257 0
-622 46 623 0
-434 31 436 0
-373 377 0
-485 -93 0
-295 296 0
-23 346 0
-150 -2 152 0
-100 99 0
-519 524 0
-620 621 0
-270 131 272 0
-531 -88 0
-178 179 0
-323 -104 324 0
-805 -63 0
-852 -138 0
-440 444 0
-379 -91 380 0
-344 73 345 0
-750 56 752 0
-350 -72 0
-323 327 0
-687 688 0
-26 25 0
-143 3 145 0
22 330 0
-697 122 0
-720 138 0
-668 -48 670 0
-429 430 0
-356 25 358 0
19 297 0
-817 66 818 0
-402 -27 404 0
-202 -80 0
-454 -81 456 0
-555 556 0
-551 -38 553 0
-754 755 0
-385 26 387 0
20 298 0
-201 -79 0
-24 371 0
-830 67 832 0
-742 -55 744 0
-383 -93 384 0
-97 652 0
-574 578 0
-547 99 548 0
17 265 0
-496 497 0
-375 378 0
-316 -22 318 0
-516 -135 517 0
-417 418 0
-347 -71 349 0
-115 -35 0
-173 -6 174 0
-149 88 0
-699 704 0
-165 99 166 0
-679 682 0
-234 -14 235 0
-246 70 247 0
7 192 0
49 683 0
-794 -86 0
-484 485 0
50 684 0
-22 21 0
4 159 0
-822 -65 824 0
-393 114 0
-133 419 0
-55 747 0
59 769 0
-726 728 0
-86 85 0
-524 88 525 0
-668 669 0
-284 286 0
-527 528 0
-746 749 0
-26 401 0
-307 104 308 0
-390 113 392 0
-545 101 0
-18 261 0
-168 173 0
-269 270 0
-688 695 0
-749 -102 0
-244 70 0
-692 697 0
-673 -107 0
-152 153 0
-132 131 0
-635 -83 637 0
-300 22 302 0
-626 83 627 0
-491 -95 0
-812 65 814 0
-18 274 0
-392 114 394 0
-184 -6 186 0
75 0
-661 662 0
-277 279 0
-520 521 0
24 356 0
-432 76 0
-851 -137 0
-624 84 625 0
-602 604 0
-582 -40 584 0
-845 846 0
-340 344 0
-282 285 0
-396 113 397 0
-262 263 0
-76 -75 -74 -73 -30 -29 0
-417 -132 0
-222 14 224 0
-91 382 0
-791 794 0
-771 772 0
-329 330 0
-603 127 0
-376 -26 377 0
-591 595 0
29 0
-213 -11 0
-840 -68 842 0
49 663 0
-700 -51 702 0
-781 62 0
-166 100 0
-403 -28 405 0
-488 -94 0
18 266 0
-107 680 0
-33 486 0
-57 766 0
-317 318 0
-721 722 0
51 713 0
-574 42 575 0
9 195 0
-700 701 0
-333 -22 335 0
-66 838 0
-38 528 0
-321 325 0
-561 -100 562 0
-568 569 0
-543 100 545 0
-767 768 0
-106 105 0
-619 83 621 0
-752 753 0
-513 -134 0
-451 452 0
-180 182 0
-631 -45 633 0
-637 -84 0
-169 -5 171 0
-636 -83 0
-436 32 438 0
-306 103 307 0
-756 117 0
-571 115 573 0
-32 31 0
-271 131 0
-529 -87 531 0
-188 -8 190 0
29 428 0
-324 -105 0
-595 -116 596 0
-376 379 0
-639 643 0
-643 -84 644 0
-702 703 0
79 285 0
-503 133 505 0
-195 10 197 0
-666 109 667 0
-369 94 0
-823 827 0
-224 103 0
-745 746 0
-537 546 0
-808 -97 0
-798 64 800 0
125 602 0
-303 304 0
-811 64 813 0
-583 -41 585 0
-585 591 0
-277 -130 278 0
-362 92 364 0
-59 786 0
-455 -81 0
-183 112 0
-307 311 0
-164 6 165 0
-370 371 0
51 693 0
-435 31 437 0
-327 -105 328 0
-505 134 507 0
60 778 0
-99 -33 0
-153 -4 0
-674 -50 675 0
-58 764 0
-232 233 0
-24 347 0
-665 108 666 0
-416 417 0
-741 742 0
-80 79 0
-299 300 0
-441 445 0
-805 806 0
-158 159 0
-718 137 720 0
-203 10 205 0
-163 166 0
-758 -56 760 0
-123 -27 0
-625 629 0
-241 246 0
129 194 0
-423 126 0
-3 154 0
-132 418 0
-488 491 0
53 729 0
-119 -21 0
-662 109 0
-6 5 0
-245 248 0
-568 41 570 0
-565 -102 0
-405 -113 0
-620 83 0
-734 735 0
-655 656 0
-368 93 369 0
-404 -28 0
-719 720 0
8 182 0
-409 -113 410 0
-826 -66 827 0
-762 -58 763 0
-554 558 0
30 429 0
-745 -56 0
1 142 0
-451 -31 453 0
-58 767 0
-276 -130 0
-617 623 0
-801 802 0
-5 184 0
-217 -91 218 0
-316 322 0
-130 -129 -8 -7 0
-833 68 834 0
-644 -85 645 0
-786 787 0
-139 140 0
-621 625 0
-203 204 0
-394 115 0
-340 72 342 0
-285 287 0
10 204 0
-66 65 0
-785 86 0
-648 649 0
-297 20 299 0
-229 -13 231 0
-593 -117 0
-531 532 0
-361 91 363 0
-410 413 0
-245 71 0
-452 -32 454 0
-648 -48 0
-13 234 0
-715 716 0
-54 53 0
-273 274 0
-236 -104 0
-91 -15 0
-27 415 0
-337 338 0
-147 87 149 0
-97 -53 0
-400 -26 402 0
-629 86 0
-784 85 785 0
-278 280 0
-705 -119 706 0
-348 -71 350 0
-199 200 0
-532 -89 0
-184 185 0
40 567 0
-828 -110 0
-607 -125 609 0
-849 850 0
-15 258 0
-573 116 0
-663 50 664 0
-391 113 393 0
-251 252 0
-136 727 0
-589 -116 0
61 783 0
-197 79 0
-815 66 0
-833 835 0
-435 436 0
-775 776 0
-114 113 0
-634 635 0
-760 761 0
-567 41 569 0
-288 82 0
-611 -127 613 0
-39 557 0
-298 21 300 0
-502 503 0
-813 65 815 0
-461 -81 462 0
-40 39 0
-51 704 0
-337 24 339 0
15 240 0
44 0
-322 326 0
-99 -11 0
-156 -87 157 0
-521 525 0
-483 -34 485 0
-244 245 0
-632 -45 634 0
129 0
-837 -66 839 0
-121 -57 0
-719 137 0
3 158 0
-681 -109 682 0
-755 117 757 0
-689 690 0
-46 647 0
-440 82 0
-23 370 0
23 337 0
-527 -38 529 0
-549 101 550 0
-338 71 340 0
-431 432 0
-96 651 0
-573 577 0
11 219 0
24 338 0
-645 -86 0
-756 757 0
12 220 0
-701 -52 703 0
-693 52 694 0
-646 -46 0
-841 -68 843 0
21 305 0
-342 73 0
-148 87 0
-576 580 0
-412 -114 413 0
-498 499 0
-134 516 0
-377 380 0
-640 644 0
-761 763 0
-357 358 0
-36 35 0
-211 -10 213 0
-561 564 0
-331 123 0
-240 241 0
-53 741 0
-237 -14 0
-257 -72 0
-419 -134 0
-424 425 0
-283 284 0
-544 100 0
-570 42 572 0
-712 -122 0
-807 809 0
-730 89 0
-729 54 0
-302 307 0
-281 20 283 0
-88 87 0
-542 99 544 0
-608 609 0
-487 490 0
126 604 0
-588 -115 0
-215 -12 216 0
-350 351 0
-814 66 816 0
-641 -85 0
-151 -3 153 0
-14 13 0
-170 174 0
-793 -85 794 0
-134 133 0
-276 278 0
-786 -60 788 0
33 475 0
-601 603 0
-180 8 181 0
-535 -90 0
-599 125 601 0
-162 6 0
-221 222 0
-832 68 0
-300 306 0
-660 108 662 0
-35 497 0
-141 70 0
-142 2 144 0
-93 492 0
-694 119 695 0
-751 57 753 0
-304 308 0
-210 92 0
-68 850 0
-347 352 0
-460 -83 0
-478 95 479 0
-351 354 0
-331 332 0
-10 9 0
-621 84 0
-319 -103 0
-74 73 0
-676 679 0
-386 27 388 0
-434 441 0
-363 92 0
-548 100 549 0
-753 58 755 0
76 0
-680 -108 681 0
-776 -78 0
-44 631 0
-37 527 0
-679 -109 0
-683 50 685 0
-723 724 0
-791 -85 0
-31 457 0
-62 61 0
-481 486 0
-582 583 0
-140 141 0
-374 -26 0
-120 119 0
-717 136 719 0
-441 32 442 0
-465 466 0
53 0
-675 -107 676 0
-773 -60 775 0
89 0
-509 136 0
-649 650 0
-129 277 0
-508 509 0
-207 208 0
-79 -15 0
-108 107 0
-456 -82 0
-314 -21 316 0
-473 94 0
-733 55 735 0
-391 392 0
-352 -72 353 0
-87 -15 0
-127 -51 0
-38 552 0
-474 479 0
-725 -136 726 0
-525 89 526 0
-540 40 542 0
-50 699 0
61 795 0
-204 11 206 0
-778 783 0
-238 239 0
87 524 0
-207 12 209 0
-494 -96 0
43 0
-71 352 0
69 246 0
-179 181 0
-782 785 0
-227 104 0
-424 -124 426 0
-617 46 619 0
-801 97 0
10 196 0
-653 48 655 0
19 281 0
-177 7 179 0
54 733 0
-671 -50 673 0
-630 631 0
-188 189 0
-708 711 0
37 536 0
-587 592 0
-45 646 0
-130 279 0
-554 -40 556 0
38 537 0
-640 -84 641 0
-372 373 0
-39 582 0
-834 836 0
-366 91 367 0
46 626 0
-687 52 689 0
-711 -121 712 0
-597 -118 0
-250 255 0
-293 -80 295 0
-94 93 0
-34 489 0
-341 72 0
-439 440 0
-177 180 0
-401 -27 403 0
-420 124 422 0
-780 784 0
-308 105 0
-701 705 0
-103 -15 0
-482 483 0
-822 823 0
-672 -50 0
-510 -36 512 0
-443 447 0
-41 606 0
-744 -56 746 0
-274 -129 276 0
-336 -124 0
-117 -49 0
-427 -126 0
-291 292 0
-388 396 0
-426 -125 0
25 385 0
-302 103 304 0
-252 256 0
-596 -117 597 0
-616 617 0
-353 -73 354 0
-635 640 0
-736 737 0
-284 80 0
-732 54 734 0
-187 -8 189 0
-682 -110 0
-99 -19 0
8 193 0
-63 807 0
-683 684 0
-562 565 0
-332 124 0
-542 543 0
-125 -35 0
-803 804 0
-459 -82 460 0
-144 3 146 0
31 441 0
-457 -32 458 0
-11 215 0
-167 -4 169 0
-346 347 0
-425 -125 427 0
-205 206 0
-334 -123 336 0
-808 810 0
39 566 0
-404 405 0
-409 412 0
-615 45 617 0
-63 820 0
-370 -24 372 0
-729 730 0
-68 67 0
-386 395 0
-260 -18 0
-835 121 836 0
-266 129 268 0
-569 575 0
-812 817 0
-612 613 0
-151 154 0
-491 494 0
-471 472 0
-633 639 0
-10 0
-790 -62 0
-229 234 0
-675 678 0
-359 26 361 0
-446 82 447 0
-233 236 0
80 287 0
-781 782 0
-294 -81 296 0
-823 -66 825 0
-339 340 0
-196 79 198 0
-538 539 0
-415 -28 0
-585 -42 587 0
-475 34 476 0
-64 809 0
-268 130 270 0
-252 -70 254 0
-371 -25 373 0
-728 -138 0
25 365 0
-36 498 0
-265 266 0
-572 115 0
-405 408 0
-385 386 0
-99 563 0
-449 450 0
-522 88 0
-508 135 0
-669 -49 671 0
-567 574 0
-128 127 0
47 653 0
-850 -137 852 0
-36 511 0
-735 739 0
-689 119 691 0
-367 92 368 0
-657 658 0
-398 115 399 0
-777 778 0
-636 637 0
-841 842 0
39 546 0
-395 28 396 0
-258 259 0
-450 -31 452 0
-272 132 0
-456 460 0
-49 698 0
78 0
-42 594 0
-267 129 269 0
-225 14 226 0
-660 666 0
-539 547 0
-42 41 0
-261 262 0
-403 407 0
-543 549 0
-19 289 0
-586 587 0
-226 103 227 0
-783 62 784 0
-650 651 0
-769 60 771 0
-430 431 0
-669 674 0
43 614 0
-686 52 688 0
-70 -69 -2 -1 0
-528 533 0
-406 -28 407 0
-230 -13 232 0
-27 406 0
-474 95 0
-464 -84 0
-590 594 0
-313 314 0
-688 119 690 0
-258 -16 0
-512 513 0
35 502 0
-614 44 616 0
-497 498 0
-837 838 0
-498 -105 0
-612 -127 0
-454 459 0
-208 91 210 0
-387 27 389 0
-827 -109 828 0
-809 -97 810 0
-658 665 0
-359 360 0
-89 -45 0
-356 365 0
27 395 0
-15 249 0
-541 548 0
