p cnf 622 1190
-607 612 0
-102 101 0
-488 -96 490 0
-16 15 0
-13 188 0
-289 293 0
-606 -50 608 0
63 0
-266 267 0
-411 416 0
-311 -80 312 0
-321 90 0
-227 -18 229 0
-279 68 0
-30 373 0
-83 -11 0
-312 -81 313 0
-352 110 353 0
-94 -93 -12 -11 0
-155 10 157 0
-374 -75 0
19 265 0
47 574 0
-196 197 0
-518 -92 0
-536 537 0
-450 451 0
-415 418 0
-395 396 0
-423 -102 0
-272 58 0
-348 28 350 0
-443 -62 0
-390 32 391 0
-487 -96 489 0
-76 378 0
-114 -113 -56 -55 0
59 432 0
-490 491 0
25 290 0
-600 52 602 0
-450 69 0
-408 -85 409 0
-114 113 0
-28 27 0
-38 508 0
-400 -83 0
-610 611 0
-4 3 0
-278 279 0
-394 86 0
-223 224 0
-451 455 0
-292 80 293 0
-431 433 0
-376 378 0
-562 -113 564 0
54 618 0
-83 -25 0
-569 72 0
-575 577 0
51 603 0
-283 25 285 0
-127 -3 129 0
-454 458 0
-449 69 451 0
-382 31 384 0
-122 123 0
-462 463 0
-130 -4 131 0
-493 494 0
-521 41 523 0
-438 439 0
-431 60 0
-489 -97 491 0
-557 558 0
-132 -73 133 0
-453 457 0
-466 -69 0
-237 19 239 0
-325 -88 327 0
-537 545 0
8 0
-189 -57 191 0
50 598 0
-40 39 0
-19 260 0
-441 -61 443 0
-525 528 0
-611 614 0
41 549 0
-235 236 0
30 381 0
-485 -95 487 0
44 0
-617 54 0
-284 25 286 0
-341 -93 343 0
-541 547 0
-455 71 0
-173 -11 175 0
-330 331 0
-517 -91 518 0
-146 -6 148 0
-275 276 0
-39 534 0
-134 135 0
-287 292 0
-505 506 0
-419 420 0
-246 101 0
-364 365 0
-119 3 121 0
-243 246 0
-319 89 0
33 428 0
-301 -26 303 0
-362 -111 0
-32 420 0
28 331 0
-130 132 0
-533 106 0
-251 260 0
-371 78 0
-162 -68 0
-139 83 0
-137 6 139 0
-52 51 0
-254 -20 256 0
-309 -81 0
-577 86 0
-216 217 0
-479 481 0
-510 512 0
-161 162 0
-118 2 120 0
-192 193 0
-373 -75 375 0
-401 -32 402 0
21 0
-256 257 0
-323 -87 325 0
36 456 0
-10 160 0
-513 515 0
-332 93 334 0
-599 51 601 0
-439 -60 441 0
-356 -28 358 0
-486 487 0
10 156 0
-359 -110 361 0
-177 -79 0
-435 62 0
-33 460 0
-532 105 533 0
-24 23 0
-395 -30 397 0
-553 555 0
19 241 0
-559 -111 561 0
-306 310 0
-64 63 0
-5 149 0
-296 81 297 0
-615 616 0
-231 233 0
-300 -25 302 0
27 330 0
47 586 0
-589 98 0
-4 132 0
-204 205 0
-118 119 0
27 348 0
-600 604 0
7 0
-149 -6 150 0
-268 269 0
-404 -83 405 0
-420 -101 422 0
-38 493 0
-363 -112 0
-228 -63 230 0
-412 413 0
-138 6 0
-388 389 0
-302 303 0
-413 102 415 0
-558 -111 560 0
-36 35 0
-10 173 0
-330 28 332 0
-209 211 0
-255 262 0
-26 323 0
-327 -89 329 0
-176 -12 0
-353 355 0
-76 75 0
-376 -76 377 0
-551 111 0
-212 214 0
56 621 0
-25 306 0
-572 573 0
-73 -9 0
-271 272 0
87 218 0
-141 83 142 0
-413 417 0
-469 -69 470 0
-621 113 0
-182 93 0
-178 -12 179 0
-476 36 478 0
63 117 0
-350 109 0
108 268 0
-280 281 0
9 155 0
-471 475 0
-65 596 0
-225 226 0
41 525 0
29 380 0
11 0
-41 544 0
-264 -102 0
15 216 0
-472 -69 473 0
109 269 0
-197 73 199 0
-65 -33 0
-181 12 0
-14 189 0
-48 47 0
24 283 0
-314 315 0
-503 90 505 0
-344 -95 0
-333 94 335 0
-572 47 0
-112 111 0
105 0
-88 87 0
-608 609 0
-2 1 0
-171 80 0
-584 585 0
-252 253 0
-515 517 0
-366 75 368 0
3 134 0
-433 61 0
-319 321 0
-501 89 503 0
-273 59 0
13 184 0
-411 101 413 0
-540 -103 542 0
37 38 77 78 0
-523 42 0
-436 437 0
-17 250 0
-350 351 0
-315 318 0
110 354 0
-401 404 0
-326 327 0
8 153 0
-45 578 0
-60 59 0
-205 208 0
-372 -30 374 0
-459 72 0
-525 42 526 0
-209 -73 0
24 278 0
-345 -94 346 0
-404 407 0
-255 -99 257 0
37 495 0
-40 513 0
-41 557 0
-432 434 0
-585 -86 0
-377 379 0
-342 346 0
-100 99 0
2 119 0
-14 13 0
-616 617 0
-346 -95 347 0
-33 436 0
-530 533 0
-318 88 319 0
-565 566 0
-146 150 0
100 0
43 565 0
-261 -99 262 0
-27 339 0
109 0
-584 -85 0
-35 484 0
-425 -102 426 0
-448 36 450 0
-502 90 504 0
-422 -102 424 0
-253 261 0
-503 504 0
-448 449 0
-362 363 0
-213 -75 0
-241 244 0
-337 95 338 0
-49 594 0
-3 143 0
-224 65 226 0
-125 74 0
9 163 0
-1 126 0
-169 12 170 0
-293 81 0
-193 15 195 0
-26 25 0
-123 73 125 0
-607 -51 609 0
-185 57 187 0
91 619 0
18 220 0
-190 191 0
-536 -41 538 0
11 181 0
-221 222 0
-40 535 0
-512 -89 0
-133 -74 0
-242 99 243 0
-282 24 284 0
-170 79 171 0
-50 607 0
-573 575 0
113 0
-245 100 246 0
107 154 0
12 182 0
-452 456 0
-131 133 0
-81 -37 0
-460 461 0
-374 375 0
-389 85 0
-32 404 0
-484 -36 486 0
46 571 0
-204 -14 206 0
-239 20 0
-547 -105 548 0
-67 -17 0
-369 77 371 0
-611 -81 0
-531 104 532 0
-543 548 0
-38 37 0
-516 -91 0
-565 44 0
-156 67 158 0
-522 42 524 0
-218 88 0
-534 535 0
-202 203 0
-116 117 0
-475 -72 0
-147 148 0
-550 111 552 0
-615 52 0
-385 83 387 0
-77 -35 0
-262 -100 263 0
-554 556 0
-83 407 0
-612 -52 613 0
-135 140 0
-490 -97 0
-530 105 0
99 0
-257 263 0
-406 409 0
31 410 0
-386 387 0
-391 83 392 0
-300 301 0
-567 46 0
-144 149 0
-434 61 435 0
-276 277 0
-207 209 0
-10 9 0
-358 -109 360 0
-403 -84 0
-136 5 138 0
32 411 0
-417 103 418 0
-452 36 453 0
-537 -42 539 0
-549 42 551 0
-74 73 0
20 266 0
-495 38 497 0
-292 296 0
-50 49 0
42 550 0
-570 571 0
-601 602 0
-67 -13 0
-128 129 0
-159 160 0
-216 16 0
-336 94 337 0
-84 83 0
-465 -69 467 0
-427 -104 0
-511 513 0
67 0
-277 24 0
-598 603 0
-484 485 0
-85 -35 0
-268 109 0
-343 344 0
-288 289 0
-22 21 0
109 352 0
-520 41 522 0
-331 336 0
-613 -81 614 0
-205 -15 207 0
-86 85 0
-203 76 0
-571 574 0
-602 605 0
-62 61 0
-582 583 0
-340 345 0
-168 79 0
-270 22 0
-96 95 0
-410 32 412 0
-159 -10 161 0
29 364 0
17 219 0
-377 -77 0
53 0
-344 347 0
-410 411 0
-497 39 499 0
-324 325 0
-307 -79 308 0
-154 108 0
-470 -70 471 0
-36 472 0
62 0
71 0
-148 151 0
-75 -17 0
-34 33 0
-191 -58 0
-396 -31 398 0
26 294 0
-147 -6 0
-349 109 351 0
-98 97 0
-164 11 166 0
-375 377 0
-212 -74 213 0
-351 353 0
-528 531 0
-563 564 0
-560 -112 562 0
-594 595 0
-210 212 0
-175 179 0
-63 231 0
-152 153 0
-79 -15 0
-145 -5 147 0
-167 12 0
28 349 0
34 429 0
14 185 0
-108 107 0
-381 31 383 0
-461 468 0
-315 87 317 0
-469 473 0
-180 -80 0
-161 -67 0
-188 -14 190 0
-480 482 0
-446 447 0
99 247 0
-534 -40 536 0
-574 48 575 0
-543 -105 0
-498 40 500 0
-246 249 0
-236 19 238 0
-46 45 0
-465 470 0
57 0
-482 97 483 0
-477 95 479 0
-29 372 0
-110 109 0
-163 10 165 0
-140 6 141 0
-36 485 0
-83 -17 0
-606 607 0
-551 552 0
-515 -90 516 0
-298 -24 300 0
-317 319 0
-229 -63 0
-271 57 0
-446 35 448 0
-500 89 502 0
-516 518 0
-210 -73 211 0
16 217 0
-23 298 0
-348 349 0
48 587 0
-310 -79 311 0
-383 391 0
-252 -19 254 0
-604 81 605 0
-305 -80 0
-474 -71 475 0
43 0
-18 251 0
-402 405 0
-306 -26 307 0
61 0
-586 48 588 0
57 272 0
-137 141 0
-12 11 0
-618 619 0
-145 146 0
4 135 0
-176 177 0
-13 204 0
-368 76 370 0
31 390 0
-478 95 0
-70 69 0
-601 52 0
-520 525 0
-598 51 600 0
-331 93 333 0
51 615 0
-238 20 240 0
-48 591 0
-164 169 0
-392 84 393 0
-544 -42 545 0
-74 0
-619 92 0
-349 352 0
-541 -104 543 0
-622 114 0
-223 64 225 0
-259 264 0
-360 361 0
-173 178 0
-175 -12 177 0
-462 -35 464 0
-582 -48 584 0
-219 220 0
-120 3 122 0
-250 251 0
-524 527 0
-527 104 0
-588 97 0
-302 -26 304 0
-192 14 194 0
-88 -87 -16 -15 0
-158 68 0
-18 228 0
-152 8 0
-290 294 0
-473 -70 474 0
-599 600 0
-108 -107 -8 -7 0
44 566 0
-230 -64 0
-157 158 0
56 0
-188 189 0
-340 -93 342 0
-554 113 0
-82 81 0
-75 -23 0
-37 507 0
10 164 0
-58 57 0
-343 -94 0
-31 401 0
-620 621 0
-414 102 0
1 115 0
-64 233 0
-324 -87 326 0
-333 337 0
-393 85 394 0
-31 419 0
-505 91 0
-70 -69 -68 -67 -24 -23 -22 -21 0
-440 -60 442 0
-309 313 0
-266 107 0
-341 342 0
-372 373 0
-464 -36 466 0
-286 287 0
-568 71 0
-20 19 0
-432 60 433 0
-367 76 369 0
-253 -20 255 0
-234 -66 0
6 0
-334 94 0
-397 -31 399 0
15 0
103 531 0
35 476 0
-501 502 0
-211 -74 0
-200 201 0
-347 -96 0
-580 -47 582 0
-583 -85 585 0
-94 93 0
-610 -52 0
-241 20 242 0
38 496 0
-552 554 0
-421 -101 423 0
-117 64 0
-447 36 449 0
-384 385 0
-298 299 0
-177 180 0
-396 401 0
-8 7 0
-303 -79 305 0
-578 -46 580 0
-131 -73 0
-442 443 0
-115 2 0
-72 71 0
-215 -76 0
-592 593 0
-208 210 0
-568 569 0
-4 144 0
-243 100 0
1 0
-181 182 0
-129 131 0
-126 127 0
-65 -43 0
-280 69 0
-106 105 0
-287 79 289 0
30 365 0
19 0
101 416 0
-539 -103 541 0
-467 471 0
-418 104 0
-219 18 221 0
-275 22 0
-129 -4 0
-244 247 0
-279 280 0
-545 -103 546 0
-529 104 530 0
-614 -82 0
-353 111 0
-87 -17 0
-9 159 0
-288 79 0
-519 40 521 0
-529 532 0
-399 400 0
-603 52 604 0
-269 110 0
-122 4 124 0
-451 70 0
-316 87 0
-235 18 237 0
-549 550 0
-338 96 0
-580 581 0
13 192 0
-320 89 321 0
-373 376 0
-138 139 0
-196 16 198 0
-32 31 0
-381 390 0
5 0
-524 103 0
-455 459 0
96 482 0
-591 -97 593 0
23 0
22 276 0
-65 -21 0
-60 -59 -58 -57 -22 -21 0
-406 -85 0
-34 461 0
-322 323 0
-364 30 366 0
-528 103 529 0
-244 99 245 0
-267 268 0
-496 39 498 0
-420 425 0
-521 522 0
-299 306 0
-400 403 0
-466 467 0
-27 356 0
-550 553 0
93 183 0
-318 320 0
-166 170 0
-232 234 0
-399 -32 0
-463 469 0
-526 529 0
-535 -41 537 0
-526 103 527 0
-561 562 0
-135 5 137 0
-91 -47 0
-380 30 382 0
-25 322 0
-44 43 0
-214 -75 215 0
-228 231 0
-522 526 0
-329 -90 0
-153 154 0
-179 -79 180 0
35 452 0
-358 359 0
-597 50 599 0
-134 4 136 0
-334 335 0
-190 -57 0
-304 -79 0
-308 -80 309 0
-127 130 0
22 271 0
-409 -86 0
-468 -36 469 0
-588 589 0
-198 73 200 0
-478 479 0
67 279 0
-423 424 0
-479 96 0
-236 241 0
-436 -34 438 0
-552 112 0
-297 82 0
88 320 0
-471 -71 0
-542 543 0
-375 -76 0
-95 -31 0
-608 -51 610 0
-542 -104 0
-183 94 0
-250 -18 252 0
-339 -28 341 0
-596 -66 0
-207 -16 0
-81 -29 0
-56 55 0
-424 -103 0
21 275 0
-240 243 0
-385 392 0
-201 75 203 0
-514 516 0
-342 -94 344 0
-165 166 0
-260 -20 261 0
-570 46 572 0
-307 311 0
95 480 0
-206 -15 0
-370 371 0
-335 338 0
-49 606 0
-486 -95 488 0
-14 0
-229 230 0
-101 425 0
-174 175 0
-139 142 0
-447 453 0
-240 99 0
-576 85 577 0
-15 208 0
-573 48 0
-424 427 0
-389 394 0
-303 308 0
-564 -114 0
-379 -78 0
-314 26 316 0
-186 57 0
-354 111 355 0
-499 500 0
-415 103 0
-29 395 0
-444 445 0
-265 20 0
-143 144 0
107 0
-93 -17 0
-68 67 0
-299 -25 301 0
-510 -40 0
-291 79 292 0
-143 -4 145 0
-110 -109 -108 -107 -20 -19 0
-77 494 0
-546 -104 547 0
-221 63 223 0
21 270 0
-72 -71 -46 -45 -44 -43 0
-382 383 0
-467 -70 0
-509 -39 0
49 597 0
-272 273 0
-151 -84 0
-186 187 0
-335 95 0
-217 218 0
112 555 0
-605 82 0
-294 79 295 0
-483 98 0
-556 114 0
-621 622 0
-493 -77 0
91 0
-34 437 0
-360 -110 362 0
-566 567 0
87 318 0
-597 598 0
-213 215 0
-248 101 249 0
-283 290 0
-124 125 0
-148 -83 0
-64 -63 -2 -1 0
-155 156 0
-278 67 0
-290 26 291 0
-220 63 222 0
-291 295 0
-453 69 454 0
-80 79 0
18 236 0
59 274 0
52 616 0
-92 -91 -54 -53 -52 -51 0
-35 468 0
-351 110 0
93 0
-561 -112 563 0
-11 178 0
-398 -32 400 0
-89 515 0
-405 -84 406 0
53 617 0
-339 340 0
-73 212 0
-284 285 0
-357 -109 359 0
-198 199 0
-412 101 414 0
-538 539 0
-592 -97 0
-506 92 0
5 140 0
-274 60 0
-428 429 0
-557 -42 559 0
-388 84 0
-578 579 0
-286 26 288 0
-492 493 0
113 622 0
-144 -5 146 0
-523 524 0
-136 137 0
-233 -65 234 0
-494 -78 0
-92 91 0
-445 452 0
-6 5 0
-225 65 0
-245 248 0
-574 576 0
-579 -47 581 0
-387 393 0
2 116 0
-365 75 367 0
-217 87 0
-378 -77 379 0
-289 80 0
-150 -83 151 0
-398 402 0
-115 116 0
-128 -3 0
-433 435 0
-184 14 186 0
-39 511 0
58 273 0
106 0
-265 266 0
-26 310 0
-202 75 0
-28 340 0
-46 579 0
-407 -84 408 0
-429 432 0
-495 496 0
-81 -35 0
111 553 0
-440 441 0
-405 408 0
-153 107 0
-620 56 0
-507 -38 509 0
40 520 0
14 193 0
-566 45 0
-590 591 0
49 50 65 66 0
-295 80 296 0
-616 53 0
-445 35 447 0
-581 -48 583 0
-104 103 0
-194 15 196 0
-18 17 0
-237 238 0
-355 112 0
-182 183 0
-232 -65 0
11 169 0
-281 70 0
-249 102 0
-454 70 455 0
-593 -98 0
-609 613 0
-332 333 0
-85 -37 0
-277 278 0
-242 245 0
-429 59 431 0
-384 32 386 0
45 567 0
-499 40 501 0
-50 595 0
-167 168 0
-276 23 0
-402 -83 403 0
-507 508 0
-421 422 0
-366 367 0
-63 -13 0
26 315 0
-370 77 0
-397 398 0
-267 108 0
-258 -100 0
-492 -38 0
-457 70 458 0
46 568 0
-166 12 168 0
-555 113 556 0
-172 -10 174 0
-160 -67 162 0
-430 59 0
-444 34 446 0
-256 -99 258 0
39 519 0
-30 29 0
-304 305 0
-449 454 0
-195 16 197 0
-257 -100 259 0
23 282 0
-512 514 0
-460 -34 462 0
-194 195 0
-222 64 224 0
-383 32 385 0
-422 426 0
-301 307 0
-2 127 0
-437 -59 439 0
-93 345 0
-461 -35 463 0
-42 558 0
51 0
-386 83 388 0
-587 97 589 0
-258 259 0
36 477 0
17 235 0
-575 85 0
-16 210 0
-168 171 0
69 0
68 280 0
-174 -11 176 0
-519 520 0
-513 -89 514 0
-90 517 0
-464 465 0
87 0
60 434 0
-121 4 123 0
-74 214 0
-590 -48 592 0
69 281 0
-230 232 0
-165 11 167 0
-458 71 459 0
-559 560 0
33 444 0
-81 -45 0
-326 -88 328 0
-508 -39 510 0
-51 612 0
-79 -17 0
-66 65 0
-308 312 0
-28 357 0
-617 618 0
-438 -59 440 0
-42 41 0
-316 317 0
-527 530 0
55 620 0
34 445 0
-101 -27 0
-3 130 0
-120 121 0
-199 74 201 0
-206 207 0
23 277 0
-293 297 0
-535 544 0
-481 97 0
-609 -52 611 0
-238 242 0
-356 357 0
-270 271 0
107 267 0
-89 -35 0
-251 -19 253 0
25 314 0
-97 -39 0
-187 58 0
-75 376 0
-259 -101 0
-387 84 389 0
-468 472 0
-586 587 0
55 0
-476 477 0
-553 112 554 0
-142 84 0
-595 596 0
-602 81 0
-211 213 0
-540 541 0
-430 431 0
-78 77 0
-285 291 0
-200 74 202 0
-54 53 0
-508 511 0
-317 88 0
-470 474 0
-273 274 0
-594 -50 0
-481 483 0
-163 164 0
71 569 0
-263 -101 264 0
-305 309 0
-419 -32 421 0
48 576 0
-157 67 0
-17 227 0
-231 -64 232 0
-282 283 0
-368 369 0
-456 69 457 0
-227 228 0
-567 568 0
-124 73 0
-172 173 0
-509 510 0
-477 480 0
-322 -26 324 0
-488 489 0
-511 -40 512 0
-89 -31 0
93 336 0
-416 102 417 0
59 0
-37 492 0
-497 498 0
-208 -16 209 0
-504 91 506 0
-442 -61 0
-595 -65 0
-90 89 0
-83 -15 0
-538 -42 540 0
45 570 0
1 118 0
-9 172 0
-563 -113 0
-254 255 0
-30 396 0
-548 -106 0
-76 0
-361 -111 363 0
-24 299 0
-352 354 0
-463 -36 465 0
20 244 0
-380 381 0
-539 546 0
-313 -82 0
45 0
42 528 0
-239 240 0
-47 590 0
-184 185 0
-116 63 0
7 152 0
-403 406 0
-618 91 0
-426 -103 427 0
-414 415 0
-285 26 287 0
-328 329 0
-514 -90 0
-480 96 481 0
-126 -2 128 0
-247 100 248 0
-328 -89 0
-226 66 0
-428 34 430 0
-14 205 0
-491 -98 0
54 0
-571 47 573 0
