p cnf 737 1416
-102 101 0
-291 85 0
-232 123 233 0
-243 247 0
-306 307 0
-509 81 511 0
-639 -119 640 0
-354 -79 0
-381 -96 0
-593 53 595 0
-631 632 0
-425 -127 426 0
-109 219 0
-28 27 0
-610 611 0
-129 -19 0
-56 639 0
-168 169 0
-149 2 0
-9 162 0
-171 -129 0
-693 698 0
-493 494 0
-627 119 629 0
-697 700 0
-578 -50 580 0
-734 -122 0
-481 -85 0
-466 85 468 0
-412 -35 414 0
-560 561 0
-109 0
-396 403 0
-482 485 0
-647 -140 0
-132 0
-345 346 0
-331 101 0
-24 23 0
53 621 0
133 0
-468 86 470 0
-670 671 0
-386 -97 387 0
-11 0
-350 352 0
44 508 0
-328 -118 0
-442 -140 0
-609 -54 611 0
-213 214 0
25 0
-238 -19 240 0
-695 699 0
-291 294 0
-37 476 0
-597 103 599 0
-83 -49 0
-563 -131 565 0
71 274 0
-9 165 0
-616 619 0
-76 75 0
47 554 0
-49 586 0
-340 130 342 0
-632 122 0
-209 -89 210 0
-1 145 0
-87 -43 0
-558 132 560 0
-663 664 0
-2 1 0
123 0
-635 -55 0
69 735 0
-122 121 0
-264 266 0
-20 248 0
21 286 0
-322 -115 324 0
27 329 0
-197 -14 199 0
-346 349 0
-225 230 0
-387 -98 0
-606 -52 608 0
-146 -71 148 0
-651 652 0
-431 138 433 0
-614 -104 0
-208 -91 0
62 673 0
-401 125 0
-596 103 598 0
-393 394 0
-656 658 0
-123 -11 0
-17 236 0
-136 135 0
-39 482 0
-201 -16 203 0
-187 89 0
77 0
-303 -86 0
53 601 0
113 0
-518 520 0
-22 278 0
-81 -37 0
-723 725 0
-582 584 0
35 403 0
-103 618 0
-613 -103 614 0
-44 524 0
-280 284 0
95 310 0
-33 390 0
-351 -131 352 0
-384 -97 0
-709 106 0
-427 36 429 0
-219 -110 0
-163 -93 0
-677 -127 679 0
-493 117 0
-50 49 0
-206 210 0
-570 571 0
-565 -132 0
-50 579 0
-29 373 0
-282 -73 0
-170 -12 0
-352 -132 0
-655 60 656 0
-281 -72 0
-309 95 0
-255 136 257 0
-304 24 0
-239 -20 241 0
-407 125 408 0
-416 -125 418 0
-516 519 0
-682 78 0
-410 128 0
-96 95 0
-278 283 0
-378 381 0
-511 82 513 0
-153 90 0
-604 105 605 0
49 570 0
-131 -35 0
-325 328 0
-46 45 0
57 0
-247 -125 0
-178 -79 180 0
-323 -116 325 0
-110 109 0
-545 -48 0
-679 -128 0
-190 89 191 0
-292 24 293 0
-505 -119 0
-579 -75 581 0
25 311 0
-234 125 235 0
-231 125 0
-439 441 0
-127 -47 0
-638 640 0
-735 70 0
-534 48 536 0
-689 66 690 0
-380 383 0
-360 361 0
-579 582 0
-464 40 466 0
-195 91 196 0
-358 30 360 0
-685 686 0
-200 206 0
-544 545 0
-29 353 0
-53 633 0
-82 81 0
-115 169 0
-427 428 0
-400 125 402 0
-286 287 0
-79 -21 0
-290 24 0
-243 -124 0
-247 251 0
-315 116 0
-213 -16 0
-147 -71 0
-694 -65 696 0
-353 354 0
-47 546 0
-678 679 0
16 193 0
1 0
-15 205 0
-194 90 195 0
-524 -45 0
-279 280 0
-311 26 313 0
2 150 0
-399 400 0
3 151 0
-278 -71 280 0
-483 486 0
-162 163 0
-111 394 0
-545 547 0
-75 582 0
-141 142 0
-107 -9 0
-486 489 0
-537 112 539 0
55 56 139 140 0
135 0
-150 151 0
-130 129 0
-9 0
-550 -112 551 0
-584 -77 585 0
-347 -129 0
-38 477 0
-312 115 314 0
-274 72 275 0
-10 166 0
-48 548 0
-405 126 406 0
-615 -103 616 0
-395 34 397 0
-56 55 0
-136 -135 -8 -7 0
-228 20 229 0
-401 402 0
-539 113 541 0
-467 85 469 0
-674 127 0
-260 261 0
-99 -51 0
30 359 0
-237 244 0
-389 -33 0
-712 -67 714 0
-394 -112 0
-388 -32 0
-143 144 0
-634 -55 636 0
-32 389 0
-393 -111 0
-533 48 535 0
-405 409 0
-121 -61 0
-248 -123 249 0
-76 584 0
-129 349 0
-468 474 0
-511 512 0
38 462 0
77 682 0
-226 123 0
102 0
-630 121 632 0
-267 -138 0
-182 15 184 0
-273 276 0
-516 -81 518 0
-49 578 0
-154 4 0
-177 -14 179 0
-373 374 0
-636 638 0
-578 579 0
-695 -66 697 0
-437 438 0
-116 115 0
-488 -86 489 0
-519 521 0
-236 -18 238 0
-320 321 0
-341 130 343 0
-480 -40 0
-45 525 0
-17 215 0
-645 646 0
-294 86 0
-676 -62 678 0
-589 -91 0
-114 -113 -62 -61 -60 -59 0
-104 103 0
-271 72 273 0
-175 79 0
-586 -50 0
-167 168 0
-507 508 0
-366 367 0
-207 211 0
-130 351 0
-101 -31 0
-30 29 0
43 507 0
-428 137 430 0
-129 172 0
-158 108 0
-151 4 0
52 592 0
-212 -92 0
69 0
-574 575 0
-433 434 0
-310 96 0
-235 126 0
-594 602 0
-699 -87 700 0
-476 -38 478 0
-704 68 706 0
-44 516 0
-616 -104 617 0
-327 -117 328 0
-160 161 0
58 649 0
-379 382 0
46 531 0
-563 566 0
-636 -56 0
-713 -68 715 0
-163 164 0
-391 -109 0
-184 190 0
-601 54 602 0
-417 -125 0
-497 119 498 0
-347 348 0
-450 75 451 0
59 0
-188 192 0
-249 -124 250 0
-90 89 0
-672 673 0
-349 -130 350 0
-370 96 371 0
-66 711 0
-231 235 0
-737 134 0
14 182 0
-599 104 0
-500 -117 502 0
-499 -42 501 0
-16 15 0
-240 -20 242 0
-297 298 0
-673 127 675 0
-156 157 0
-51 588 0
-298 302 0
-192 91 0
-91 -43 0
-418 422 0
-572 75 574 0
-487 -87 0
57 651 0
93 308 0
-36 423 0
-710 -66 712 0
-665 666 0
-4 3 0
135 161 0
-646 -139 0
-233 124 234 0
-504 -119 506 0
-592 53 594 0
-111 550 0
-276 74 0
-263 -136 0
-720 69 722 0
-353 -30 0
-316 117 0
-392 393 0
-611 614 0
-251 -126 0
-19 260 0
-227 231 0
-591 592 0
-648 58 0
-290 291 0
-36 436 0
-149 150 0
-288 23 290 0
-53 612 0
-687 66 0
-555 131 557 0
63 680 0
19 228 0
69 723 0
-333 334 0
39 471 0
-169 -116 0
-138 137 0
115 317 0
-416 421 0
3 0
-216 217 0
-168 -115 0
-58 660 0
9 10 93 94 0
-413 -35 415 0
-201 202 0
-342 131 344 0
-206 -89 207 0
124 0
-526 527 0
-465 40 467 0
-64 63 0
-25 320 0
-719 68 721 0
-205 209 0
-649 83 0
-268 269 0
-404 408 0
-467 468 0
-388 389 0
-447 74 0
-593 594 0
-112 552 0
-343 131 0
-560 133 0
-572 573 0
35 427 0
-640 -120 0
-335 336 0
-444 73 446 0
-717 -105 718 0
36 428 0
-210 -90 211 0
2 142 0
-306 26 0
33 395 0
-683 64 685 0
-197 198 0
-361 32 363 0
-63 692 0
-60 59 0
-16 214 0
-124 123 0
-85 -29 0
-138 0
-406 410 0
-223 20 225 0
-97 527 0
-611 -103 0
-307 308 0
-685 65 687 0
-535 111 537 0
-652 655 0
-55 645 0
59 667 0
-538 112 540 0
-148 -72 0
104 0
-155 5 0
-175 176 0
-515 516 0
133 737 0
-300 -85 0
-38 37 0
-558 559 0
-582 -76 583 0
-640 642 0
-242 243 0
-398 404 0
-490 -88 0
4 155 0
-525 -46 0
1 149 0
-222 19 224 0
-546 -48 547 0
-198 205 0
-669 62 0
-486 -86 487 0
-625 626 0
-333 -28 335 0
-183 184 0
-176 80 0
-84 83 0
-246 250 0
-202 207 0
-566 568 0
31 32 33 34 109 110 111 112 0
-688 691 0
-464 472 0
-288 289 0
-551 553 0
-692 693 0
-265 -137 0
-711 716 0
-629 120 631 0
-171 172 0
-119 -47 0
-671 114 0
-733 -121 0
-355 356 0
-656 99 0
-183 15 185 0
-34 33 0
-453 458 0
-312 317 0
-98 97 0
-700 -88 0
-492 117 494 0
26 312 0
-617 620 0
-180 -80 0
37 443 0
-281 282 0
-724 121 0
-179 -79 0
31 368 0
-390 -34 0
-606 607 0
-485 488 0
-270 71 272 0
-297 -23 299 0
-284 -73 285 0
-462 471 0
-576 77 0
-547 549 0
-145 -2 147 0
-299 -24 0
-314 116 316 0
-367 372 0
61 0
-95 385 0
-12 11 0
-532 533 0
61 669 0
-46 543 0
-70 69 0
-529 -100 0
-457 -75 0
-600 105 0
-415 416 0
48 555 0
-429 137 431 0
-642 -121 0
-715 -105 0
-402 126 0
-18 237 0
-12 168 0
-599 600 0
-157 158 0
-365 96 367 0
-52 589 0
-337 28 339 0
-58 57 0
-419 423 0
-423 -125 424 0
-341 342 0
-662 -60 664 0
-20 19 0
-724 726 0
66 702 0
-525 526 0
-474 87 475 0
-588 -52 0
-612 -54 613 0
-365 371 0
-320 -26 322 0
-184 16 186 0
-419 -36 420 0
-422 -127 0
-8 7 0
-645 -56 0
28 338 0
-349 351 0
-20 261 0
-72 71 0
-228 232 0
-612 615 0
-225 123 227 0
-554 48 556 0
-712 713 0
-494 118 0
-67 716 0
-408 126 409 0
51 591 0
-498 120 0
-30 374 0
-454 455 0
-659 660 0
-631 121 0
-198 -15 200 0
-580 581 0
-260 -20 262 0
-118 117 0
5 0
-479 483 0
-322 323 0
-26 321 0
-641 -120 642 0
-263 265 0
42 492 0
-132 568 0
-115 -17 0
-705 706 0
-44 43 0
-650 84 0
-389 390 0
-448 75 0
-134 -133 -70 -69 0
-588 589 0
-691 88 0
-344 132 0
-27 333 0
-714 715 0
103 0
83 650 0
-540 113 0
-496 119 0
-257 137 259 0
-313 115 315 0
-315 316 0
-81 519 0
-452 -38 454 0
-548 -111 549 0
-499 500 0
-624 56 626 0
-377 -32 0
-446 74 448 0
-91 590 0
-64 693 0
-581 583 0
-440 442 0
-595 54 597 0
-596 603 0
-514 84 0
-261 264 0
-28 0
50 571 0
36 407 0
-381 384 0
-283 -72 284 0
-706 709 0
93 0
-444 449 0
-409 127 410 0
-98 528 0
-544 -47 0
-552 -113 553 0
-308 309 0
-448 451 0
-186 191 0
-633 634 0
-475 88 0
-736 133 0
-162 -10 0
-638 -119 0
-680 64 0
-460 -76 0
-92 91 0
-170 171 0
-718 -106 0
-375 376 0
-445 73 447 0
-653 59 0
-354 355 0
-517 -81 0
-480 481 0
29 358 0
-18 17 0
65 689 0
-120 643 0
83 0
-222 223 0
-562 563 0
-704 708 0
-660 -59 662 0
-300 303 0
-41 499 0
-304 305 0
-567 569 0
-446 450 0
-608 -53 610 0
-731 732 0
-55 637 0
-546 548 0
-35 435 0
-115 326 0
-48 0
-45 542 0
-23 301 0
-151 152 0
-356 357 0
-522 -84 0
-215 216 0
-406 127 0
-476 477 0
-540 541 0
-523 -44 0
-11 167 0
-78 77 0
-256 136 258 0
1 141 0
-218 219 0
-239 245 0
-335 -101 0
-657 99 658 0
-562 -48 564 0
-79 355 0
-727 728 0
19 252 0
-548 550 0
-684 689 0
-91 -29 0
20 253 0
-721 69 0
-469 470 0
-262 -135 0
17 220 0
63 0
-289 293 0
-653 654 0
-13 197 0
-275 73 276 0
-305 25 0
-434 140 0
-643 -121 644 0
-536 537 0
-395 396 0
64 681 0
-628 120 630 0
40 0
-420 424 0
-728 -69 730 0
-96 -95 -94 -93 -26 -25 -24 -23 0
-520 522 0
15 16 17 18 107 108 109 110 0
-371 97 372 0
-698 -66 699 0
-91 -39 0
3 154 0
-47 562 0
-392 -110 0
-573 76 575 0
-447 448 0
-18 216 0
-126 125 0
-646 647 0
54 622 0
-287 292 0
-84 -83 -58 -57 0
-309 310 0
-172 -130 0
13 181 0
-502 -118 504 0
-714 -68 0
-526 -97 0
-52 51 0
-208 212 0
-268 22 270 0
-654 656 0
-256 257 0
-414 -36 416 0
-27 345 0
-639 641 0
-479 -40 481 0
-697 -87 0
-701 702 0
-382 -95 383 0
-668 61 0
59 655 0
7 0
-570 50 572 0
-513 83 0
-443 444 0
-54 634 0
-221 228 0
-565 567 0
-13 177 0
-403 36 404 0
-31 388 0
-400 405 0
-688 87 0
-627 628 0
-185 186 0
-273 73 0
-42 500 0
-438 -138 0
-670 113 0
-48 47 0
18 221 0
-541 114 0
-112 111 0
-542 -46 544 0
-694 695 0
-133 -55 0
-432 139 434 0
-189 193 0
-617 -105 0
-644 -122 0
-252 253 0
21 268 0
-383 -96 384 0
-494 496 0
-295 296 0
-100 99 0
-459 -75 460 0
-658 100 0
-287 23 289 0
-32 382 0
-503 504 0
-382 385 0
-362 363 0
5 156 0
-71 283 0
-323 327 0
-687 688 0
65 701 0
-26 25 0
95 0
-531 47 533 0
-684 65 686 0
-429 430 0
-581 -76 0
-246 -124 247 0
-22 296 0
-202 -89 204 0
-708 105 709 0
-173 14 175 0
-722 70 0
-492 495 0
-157 107 0
-534 535 0
-654 60 0
-417 418 0
107 158 0
-189 16 190 0
-286 22 288 0
-374 379 0
-680 681 0
-159 160 0
-716 -68 717 0
58 652 0
-343 344 0
-22 21 0
-250 -125 251 0
-368 32 369 0
-530 46 532 0
-86 85 0
-512 83 514 0
-668 669 0
-230 124 231 0
-527 528 0
-226 227 0
-348 350 0
-127 -55 0
-186 89 188 0
-735 736 0
-614 617 0
-230 234 0
-152 153 0
-561 134 0
-132 131 0
-166 -11 0
-547 -111 0
-117 -33 0
-433 139 0
-105 -59 0
39 0
-67 727 0
-477 -39 479 0
-661 662 0
-334 -101 336 0
-298 -24 300 0
-702 67 704 0
-282 285 0
7 159 0
-262 263 0
-143 71 0
-338 129 340 0
-345 -28 347 0
22 287 0
113 671 0
-469 86 0
-661 -59 663 0
-587 588 0
-672 62 674 0
-145 146 0
-451 76 0
-659 -58 661 0
-506 -120 0
-329 330 0
-620 -106 0
-108 -107 -6 -5 -4 -3 0
-440 -139 0
25 306 0
118 497 0
-14 198 0
-607 -53 609 0
-513 514 0
-259 138 0
-56 646 0
63 683 0
34 396 0
20 232 0
-463 39 465 0
-156 6 0
-701 66 703 0
-721 722 0
6 0
-411 -34 413 0
-501 502 0
-720 723 0
42 0
-245 -123 246 0
-667 60 0
-48 563 0
-706 105 0
-204 208 0
-106 105 0
67 707 0
-618 -104 619 0
-635 636 0
-271 275 0
-359 31 361 0
-319 118 0
-567 -133 0
-32 31 0
-605 106 0
-174 79 176 0
-455 459 0
-314 318 0
-732 -121 734 0
-377 378 0
-87 -49 0
-236 237 0
-373 -30 375 0
-725 121 726 0
-396 35 398 0
-224 20 226 0
-321 -115 323 0
-726 122 0
-15 213 0
-14 178 0
-336 -102 0
60 657 0
-204 -90 0
13 173 0
-165 166 0
-161 136 0
-577 78 0
117 495 0
-398 36 400 0
-142 71 144 0
-190 194 0
-554 555 0
107 0
-674 675 0
-211 -91 212 0
-495 497 0
-308 94 0
-316 319 0
-549 -112 0
-217 218 0
-436 439 0
-415 -36 417 0
-621 622 0
38 444 0
-80 79 0
-299 300 0
-521 -83 522 0
-241 246 0
-135 264 0
-651 58 653 0
-380 -95 381 0
-439 -138 440 0
23 292 0
-421 -126 422 0
-557 132 559 0
-667 668 0
-6 5 0
-397 35 399 0
62 670 0
-528 -99 0
-676 677 0
-456 -74 0
-543 -47 545 0
-527 -98 0
-613 616 0
-229 233 0
-536 111 538 0
-719 720 0
-277 278 0
-495 118 496 0
-296 301 0
-397 398 0
29 30 79 80 81 82 0
-481 484 0
-461 462 0
-73 458 0
-140 139 0
-252 20 254 0
-367 97 0
-109 392 0
-374 -31 376 0
-200 -16 202 0
-422 426 0
-723 70 724 0
-203 204 0
-317 116 318 0
-484 487 0
-587 -51 0
-295 -22 297 0
-669 670 0
-528 529 0
14 174 0
-66 65 0
-136 266 0
-648 649 0
-696 -66 0
-270 271 0
-390 391 0
-478 -39 480 0
-595 596 0
-139 647 0
61 672 0
-28 334 0
-54 53 0
-258 137 0
-518 -82 0
-261 -135 263 0
-337 338 0
-109 -27 0
-414 420 0
-34 412 0
-12 171 0
41 0
-159 8 0
-598 604 0
-621 54 623 0
-78 -77 -64 -63 0
-199 200 0
-705 68 0
-524 525 0
-272 72 0
94 309 0
-470 87 0
-508 81 510 0
-449 74 450 0
-509 510 0
-229 123 230 0
-418 -126 0
-607 612 0
-507 44 509 0
-223 229 0
-164 -94 0
-62 677 0
-693 -65 695 0
-362 32 364 0
-51 606 0
-99 529 0
-326 -116 327 0
-576 577 0
-435 436 0
-114 113 0
-330 101 332 0
-412 419 0
-610 -54 0
67 719 0
-289 24 291 0
-177 178 0
-517 518 0
-43 523 0
-484 -86 0
-664 -99 666 0
-600 605 0
8 0
-40 39 0
-356 -81 0
-363 95 365 0
-35 419 0
-642 644 0
-237 -19 239 0
-355 -80 0
-46 526 0
-30 354 0
-686 66 688 0
-591 52 593 0
-505 506 0
-125 -27 0
-384 387 0
-364 365 0
-113 -53 0
-707 68 708 0
-339 129 341 0
-205 -16 206 0
-21 295 0
-325 -117 0
-311 312 0
-489 -87 490 0
-324 -116 0
-431 432 0
-185 16 187 0
-622 55 624 0
-437 -137 0
-173 174 0
22 269 0
-36 35 0
-31 379 0
-152 89 0
-199 -15 201 0
-240 241 0
-399 36 401 0
-686 690 0
-107 217 0
-454 -73 456 0
-88 87 0
-244 248 0
-329 28 331 0
-608 609 0
-487 490 0
-568 -133 569 0
-166 167 0
73 449 0
-80 356 0
-549 551 0
-491 492 0
-111 -41 0
-214 -17 0
-220 18 222 0
-566 -132 567 0
23 304 0
-54 615 0
-87 -57 0
68 720 0
-14 13 0
24 305 0
-10 163 0
-496 498 0
-154 155 0
-93 -15 0
-134 133 0
-360 31 362 0
-293 85 294 0
-520 -83 0
-692 -64 694 0
-37 452 0
-16 209 0
-366 96 0
-65 698 0
-421 425 0
-711 -67 713 0
-589 590 0
-471 40 472 0
-147 148 0
-585 -78 0
-332 102 0
-227 124 0
-569 -134 0
-331 332 0
-10 9 0
-74 73 0
-348 -130 0
-279 -71 281 0
49 50 51 52 91 92 0
-285 -74 0
-214 215 0
-404 125 405 0
-435 -36 437 0
-491 42 493 0
-11 170 0
-28 346 0
-110 393 0
-137 439 0
-62 61 0
-603 104 604 0
-575 77 577 0
-120 119 0
-359 368 0
-402 406 0
-482 -40 483 0
-141 2 143 0
-465 466 0
-207 -90 208 0
-324 325 0
89 0
-363 370 0
-649 650 0
-265 267 0
-483 -85 484 0
-108 107 0
-61 676 0
-391 392 0
37 461 0
-731 -70 733 0
-269 274 0
-666 -100 0
-551 -113 0
26 307 0
-715 718 0
-665 -99 0
-453 -73 455 0
-729 -69 731 0
64 684 0
-109 -25 0
-238 239 0
-477 482 0
-457 460 0
-57 659 0
-196 92 0
-663 -60 665 0
-321 326 0
70 736 0
-131 566 0
-583 585 0
-441 -139 442 0
-361 369 0
-375 -31 377 0
28 330 0
-590 -92 0
-305 306 0
-296 -23 298 0
-34 391 0
-383 386 0
-160 135 0
-426 -128 0
-625 56 627 0
-108 218 0
-466 473 0
-52 607 0
60 668 0
-167 -12 0
-91 -23 0
-221 19 223 0
-470 475 0
-713 717 0
-307 93 0
-192 196 0
-556 557 0
-364 95 366 0
-634 637 0
-94 93 0
-193 89 194 0
-376 380 0
-443 38 445 0
-619 -105 620 0
-626 119 628 0
-253 135 255 0
-623 624 0
-191 90 192 0
-19 244 0
-473 86 474 0
-559 133 561 0
-181 182 0
-241 -123 243 0
57 648 0
6 157 0
-218 -109 0
45 530 0
-224 225 0
-372 98 0
-217 -108 0
-430 138 432 0
-602 103 603 0
-574 76 576 0
-580 -75 0
27 337 0
-346 -129 348 0
-564 -131 0
-150 3 0
-203 -89 0
-733 734 0
-266 -137 267 0
23 0
-93 164 0
-411 412 0
-503 -118 505 0
-90 -89 -4 -3 -2 -1 0
-43 515 0
-736 737 0
-615 618 0
-350 -131 0
-592 601 0
-358 359 0
-119 641 0
-478 479 0
-730 -70 732 0
-683 684 0
-542 543 0
-68 728 0
-463 464 0
-702 707 0
-181 14 183 0
-532 47 534 0
89 153 0
-220 221 0
41 491 0
-462 39 464 0
-182 189 0
-678 -127 0
-245 249 0
-144 72 0
-378 -95 0
-530 531 0
-633 -54 635 0
-81 357 0
-65 710 0
-729 730 0
-68 67 0
-436 -137 438 0
-550 552 0
-420 -125 421 0
-413 414 0
-272 273 0
-165 -10 0
11 12 129 130 0
-655 657 0
-597 598 0
-33 411 0
-456 457 0
-623 55 625 0
-155 156 0
-50 587 0
-553 -114 0
-727 -68 729 0
-339 340 0
-538 539 0
-21 277 0
-722 724 0
-637 -56 638 0
-38 453 0
-543 546 0
-523 524 0
-594 54 596 0
8 160 0
-2 146 0
-357 -82 0
-461 38 463 0
-264 -136 265 0
-485 -85 486 0
-424 -126 425 0
-216 -107 0
-556 131 558 0
-242 -123 0
-458 -74 459 0
-472 85 473 0
-652 59 654 0
-254 135 256 0
-103 -45 0
-501 -117 503 0
-455 -74 457 0
-128 127 0
9 10 11 12 115 116 0
-244 -20 245 0
-710 711 0
-519 -82 520 0
-609 613 0
-690 87 691 0
101 0
-452 453 0
-188 90 0
-301 -24 302 0
-703 67 705 0
-681 77 0
15 189 0
-138 441 0
-258 259 0
-179 180 0
-82 521 0
-641 643 0
-302 -85 303 0
4 152 0
-269 71 271 0
-703 704 0
-85 488 0
-42 41 0
43 44 45 46 97 98 99 100 0
-675 128 0
-403 407 0
-97 -39 0
-586 587 0
-318 117 319 0
-445 446 0
-385 -96 386 0
-598 104 600 0
-510 82 512 0
-583 -77 0
-629 630 0
-369 95 370 0
-187 188 0
-313 314 0
-571 75 573 0
-215 -18 0
70 725 0
-379 -32 380 0
-280 -72 282 0
-696 697 0
-191 195 0
-376 -32 378 0
-254 255 0
-277 -22 279 0
-438 440 0
-681 682 0
-637 639 0
-117 -27 0
-40 485 0
-515 -44 517 0
-564 565 0
