p cnf 751 1399
-102 101 0
-374 98 376 0
-444 -77 446 0
-306 307 0
-489 105 491 0
57 58 119 120 0
-631 632 0
-388 -99 0
-28 27 0
-610 611 0
-58 715 0
-571 -100 0
-135 6 137 0
-60 726 0
-146 -95 0
-364 -84 365 0
-419 420 0
-624 625 0
-632 91 634 0
-181 184 0
-745 -64 747 0
-345 346 0
-141 -4 143 0
-24 23 0
74 186 0
-50 645 0
-5 158 0
-335 103 0
-568 -99 0
-408 -111 0
-432 435 0
-233 235 0
-39 515 0
-154 156 0
-76 75 0
-475 478 0
-22 311 0
-338 340 0
-68 -67 -66 -65 -12 -11 0
-537 539 0
2 0
-188 -12 190 0
-270 122 272 0
-505 -105 506 0
-683 686 0
-287 20 289 0
-700 57 702 0
-279 281 0
-2 1 0
-189 -73 191 0
-584 585 0
-35 498 0
-122 121 0
-348 -106 0
-424 429 0
-187 76 0
-404 407 0
-688 87 689 0
-651 652 0
-318 23 320 0
-219 96 221 0
5 138 0
-393 394 0
-99 575 0
-640 -49 642 0
-350 355 0
-221 97 223 0
-23 341 0
103 337 0
-516 40 518 0
-319 320 0
-550 43 552 0
-365 -85 366 0
-51 665 0
127 751 0
-384 -97 0
25 367 0
-707 710 0
-13 224 0
-554 99 556 0
-684 55 0
-50 49 0
-469 474 0
14 213 0
-119 -51 0
-581 46 583 0
-574 -101 0
67 0
-458 89 460 0
-36 477 0
-677 72 0
-8 167 0
-453 454 0
11 180 0
-672 -127 673 0
-202 83 203 0
31 423 0
-52 654 0
-223 98 0
-637 638 0
-227 -16 0
-537 87 0
-96 95 0
-325 -22 327 0
-199 82 0
-379 380 0
-531 -126 0
-258 261 0
-703 101 705 0
-704 705 0
-462 467 0
-563 564 0
19 282 0
-362 -84 0
-619 -118 0
-645 647 0
20 283 0
-724 94 0
-446 447 0
-368 27 370 0
-743 -63 745 0
-367 368 0
-689 88 0
-46 45 0
-387 389 0
-492 107 0
-110 109 0
-657 125 659 0
-430 433 0
-329 -24 330 0
-31 438 0
104 339 0
-313 316 0
-419 69 0
-661 127 0
-293 294 0
-20 303 0
41 548 0
-250 112 0
-618 619 0
-215 16 217 0
-13 204 0
-176 177 0
-634 92 636 0
-229 -95 0
-709 -58 0
-617 -117 619 0
-333 24 335 0
-380 383 0
-360 361 0
-345 -104 347 0
7 154 0
-603 -114 604 0
-544 545 0
-15 251 0
-82 81 0
-687 87 0
-33 468 0
-243 249 0
-427 428 0
-715 -119 0
-548 42 550 0
-569 -44 570 0
-227 229 0
-169 170 0
-15 228 0
-641 -49 0
-411 413 0
-252 257 0
-353 354 0
-406 -30 0
-212 213 0
-736 64 0
-113 -37 0
-736 738 0
-678 679 0
-712 -101 713 0
-153 155 0
1 0
-323 89 0
-589 113 590 0
-619 621 0
-475 -89 476 0
-420 421 0
-465 90 466 0
-581 589 0
-399 400 0
-256 -109 0
-5 147 0
-162 163 0
-396 111 398 0
-603 606 0
-671 -126 672 0
-82 -81 -10 -9 0
-141 142 0
-375 98 377 0
-546 -87 0
-386 -98 0
-320 24 322 0
-146 149 0
-729 731 0
-555 100 557 0
-722 93 724 0
-404 -29 406 0
-150 151 0
-46 617 0
-670 673 0
-488 105 490 0
-208 209 0
-586 114 0
-357 86 0
-490 496 0
-473 -89 0
-155 157 0
-398 112 400 0
-339 105 340 0
-33 448 0
-518 519 0
-717 718 0
-56 55 0
40 517 0
5 150 0
-401 402 0
-714 -58 0
4 0
-479 482 0
6 151 0
-643 645 0
15 236 0
-201 203 0
-36 499 0
-444 445 0
-633 91 635 0
-216 16 218 0
-143 144 0
-171 82 0
-594 -45 596 0
-121 168 0
61 733 0
-385 387 0
-518 123 0
-327 328 0
-621 -119 0
-536 86 537 0
-142 -5 144 0
-710 712 0
-326 329 0
-417 -118 0
-652 653 0
-306 -22 0
-109 263 0
23 333 0
-732 -94 0
-726 -61 728 0
2 130 0
-288 297 0
-665 -52 667 0
-493 38 494 0
-253 254 0
-449 -77 450 0
-7 166 0
-292 299 0
-24 342 0
-373 374 0
-47 624 0
-494 105 495 0
-578 579 0
-136 137 0
-116 115 0
-698 699 0
-519 521 0
-356 85 357 0
-432 77 433 0
-680 -71 0
-52 666 0
-440 441 0
-448 -34 449 0
-394 30 396 0
-582 46 584 0
-104 103 0
-686 56 687 0
-737 64 738 0
-182 183 0
-532 42 534 0
-167 168 0
-183 74 0
-136 6 0
-53 678 0
-358 -26 360 0
-115 -51 0
-292 75 294 0
-410 -112 0
-570 573 0
-30 29 0
-542 -85 544 0
-650 -94 0
-272 123 0
69 0
-93 -55 0
-156 109 157 0
-312 315 0
-220 96 222 0
-479 -91 0
-463 36 464 0
-418 419 0
-690 -54 692 0
-657 662 0
-160 -7 162 0
-743 744 0
-290 22 292 0
-679 -71 681 0
-259 -110 0
-369 27 371 0
-160 161 0
-500 501 0
-505 508 0
-267 121 269 0
-485 486 0
-684 685 0
42 533 0
-305 309 0
-567 568 0
-49 643 0
-627 48 629 0
-283 67 0
-151 7 153 0
-347 348 0
-12 189 0
59 0
-552 553 0
-480 -90 481 0
4 133 0
-90 89 0
-476 -90 0
-420 70 0
-286 70 0
-557 101 0
-298 75 299 0
-652 -51 0
-434 437 0
-583 113 585 0
-331 -89 332 0
-14 205 0
-711 -101 0
-663 127 664 0
-16 15 0
-454 463 0
-656 52 658 0
-429 34 430 0
-725 -60 727 0
-458 465 0
-487 38 489 0
-249 111 250 0
35 483 0
-564 569 0
-665 666 0
-443 450 0
-4 3 0
-468 -34 470 0
-467 92 0
52 657 0
-548 549 0
21 297 0
-228 230 0
-402 114 0
-28 404 0
-342 -103 344 0
-412 414 0
-45 616 0
-134 135 0
-737 739 0
-729 -62 730 0
-333 334 0
-552 44 554 0
-459 460 0
-557 562 0
-427 34 0
-658 659 0
3 0
-216 217 0
-503 -105 0
-41 563 0
-327 -23 0
-44 594 0
-161 -8 163 0
-643 -50 644 0
-346 -105 348 0
-321 322 0
-477 -89 478 0
-526 527 0
-361 365 0
-725 726 0
-584 113 586 0
-604 607 0
-64 63 0
46 609 0
-204 205 0
-702 58 704 0
-170 81 0
9 169 0
-268 269 0
-460 90 462 0
-107 -43 0
-118 622 0
-730 732 0
-593 594 0
-29 407 0
-484 37 486 0
-408 410 0
-95 232 0
-51 653 0
-130 131 0
-561 101 562 0
-412 -113 0
-341 -24 343 0
-335 336 0
-481 -91 482 0
-471 475 0
70 421 0
35 463 0
-455 456 0
-334 337 0
-639 640 0
54 683 0
-266 18 268 0
-704 101 0
-558 44 559 0
-178 67 0
-381 382 0
-644 646 0
-260 263 0
-613 119 615 0
-60 59 0
-381 -27 0
-544 -86 546 0
-237 246 0
-124 123 0
-706 707 0
-565 566 0
-330 -89 0
-386 388 0
-519 124 0
-693 -56 695 0
127 0
-711 713 0
-19 302 0
-190 191 0
-739 115 740 0
45 588 0
-411 -112 412 0
-664 128 0
-175 176 0
-53 690 0
-245 111 0
-38 37 0
81 0
-242 243 0
-667 -125 669 0
123 520 0
-236 16 238 0
-382 384 0
-625 626 0
-504 507 0
-47 639 0
-84 83 0
-595 -45 597 0
-614 119 0
103 174 0
-57 710 0
-730 -93 0
-692 693 0
-528 -124 530 0
-571 574 0
-143 -5 145 0
-302 -20 304 0
-273 124 0
-744 -64 746 0
-336 104 0
-181 73 183 0
-577 -102 0
-97 -23 0
-105 -27 0
71 0
-34 33 0
-433 436 0
-130 65 0
-98 97 0
-254 258 0
-173 103 0
-413 -113 414 0
-500 -37 502 0
-560 100 561 0
-617 620 0
-517 123 519 0
-352 84 354 0
39 516 0
-731 -93 732 0
-685 687 0
8 156 0
-42 564 0
-747 748 0
-366 -86 0
-623 -120 0
-164 165 0
-583 590 0
13 212 0
-426 430 0
-175 12 0
-442 -34 444 0
-42 541 0
-18 260 0
-12 11 0
-532 533 0
-70 69 0
1 129 0
-352 356 0
-415 416 0
-274 275 0
-478 481 0
-635 92 637 0
-598 601 0
-58 57 0
-315 -77 316 0
-293 75 295 0
-91 -41 0
-341 342 0
-20 19 0
-334 103 336 0
-101 -49 0
-139 95 140 0
-72 -71 -70 -69 -32 -31 0
-21 325 0
56 688 0
-347 -105 0
-275 -121 277 0
-281 -124 0
-332 -90 0
-497 108 0
-8 7 0
-644 -91 0
-72 71 0
-622 -119 623 0
-38 514 0
-275 278 0
-255 256 0
-474 477 0
-596 600 0
-539 88 0
-113 605 0
-201 83 0
-580 581 0
-451 -79 452 0
-294 300 0
-118 117 0
-454 35 456 0
-263 -110 264 0
67 284 0
-56 707 0
-182 73 0
-407 -30 408 0
-310 -76 0
-44 43 0
-377 99 0
-390 -100 0
41 532 0
-456 36 458 0
-714 715 0
103 0
-330 332 0
-466 91 467 0
12 181 0
-416 -117 0
3 132 0
-572 575 0
32 424 0
-549 558 0
-186 75 187 0
-117 417 0
-653 -52 0
-321 24 323 0
-135 139 0
-530 -125 0
-197 200 0
-450 -78 451 0
-659 663 0
-261 264 0
-28 0
-575 -100 576 0
-618 -117 0
-162 -8 164 0
-484 493 0
-190 -73 192 0
-659 126 661 0
-750 751 0
51 656 0
-570 -99 571 0
-307 310 0
-633 634 0
-556 100 0
-326 -23 328 0
-92 91 0
-600 -113 601 0
-170 171 0
-717 60 719 0
-375 376 0
-422 72 0
-30 416 0
54 675 0
60 718 0
-708 -57 0
-225 -15 227 0
-599 -46 600 0
-18 17 0
-324 90 0
-61 729 0
22 318 0
68 285 0
-222 223 0
-328 -24 0
-421 422 0
-277 -122 0
69 286 0
-748 -116 0
63 737 0
-658 125 660 0
-276 -121 0
-48 640 0
-62 742 0
-723 93 0
-265 -112 0
-311 -75 312 0
-304 305 0
-316 -78 0
-566 570 0
-694 -56 696 0
-289 290 0
-445 451 0
44 579 0
-504 -38 505 0
-361 -84 363 0
-501 -38 503 0
-414 -114 0
-614 615 0
-195 -76 0
-230 232 0
-424 33 426 0
-405 -29 0
-646 -92 0
-692 -55 694 0
-194 -75 0
-152 7 0
69 420 0
-200 82 201 0
-455 35 457 0
-131 66 0
-254 -18 256 0
73 0
-681 -72 0
-540 541 0
-78 77 0
-682 54 684 0
-660 661 0
-218 219 0
53 682 0
-669 -126 0
-282 283 0
-668 -126 670 0
-426 34 428 0
-313 -77 0
59 60 0
-727 728 0
-308 -22 309 0
-94 0
-285 286 0
-520 124 521 0
-115 -57 0
-305 -22 307 0
-407 409 0
-625 -79 0
-349 350 0
-522 125 523 0
-490 106 492 0
-129 130 0
63 0
-653 654 0
-735 63 0
-251 -16 253 0
33 429 0
-30 409 0
-196 197 0
-104 -103 -10 -9 0
-395 396 0
-387 -98 388 0
-177 66 0
-439 -33 441 0
-599 602 0
-154 8 155 0
29 30 117 118 0
-107 655 0
7 8 121 122 0
-520 522 0
-95 -9 0
-359 -83 361 0
-257 -18 258 0
-22 326 0
62 734 0
-707 -57 709 0
-297 22 298 0
-126 125 0
-695 -87 697 0
-44 572 0
-185 75 0
-388 390 0
86 538 0
-122 280 0
-37 504 0
24 334 0
-83 -21 0
10 170 0
-521 125 0
-399 112 401 0
-379 -26 381 0
-514 515 0
-244 110 0
-329 331 0
-52 51 0
-17 274 0
-192 193 0
-718 61 720 0
81 171 0
-376 99 378 0
18 267 0
-296 77 0
-192 -74 194 0
-513 -38 0
-601 -114 0
-28 385 0
-323 324 0
-197 81 199 0
-383 -28 384 0
-302 303 0
-605 -114 606 0
-363 -85 0
-230 -95 231 0
-279 -123 0
-447 -79 0
-655 -108 0
-627 628 0
-506 509 0
-545 -87 547 0
-369 370 0
-99 -35 0
-48 47 0
-597 -46 0
-112 111 0
-694 695 0
-502 -38 0
-566 -44 568 0
-573 576 0
-510 -106 511 0
28 392 0
-421 71 0
-295 296 0
-252 -17 254 0
-683 55 685 0
-392 29 394 0
-137 95 0
-371 28 373 0
-395 30 397 0
-456 464 0
-640 643 0
-100 99 0
-507 -105 508 0
-178 179 0
-280 -123 281 0
-269 122 271 0
-460 466 0
-362 363 0
-471 -36 473 0
-647 -92 648 0
-183 185 0
124 522 0
-278 -122 279 0
-26 25 0
-546 547 0
-61 741 0
-317 22 319 0
-445 -78 447 0
-645 -91 646 0
-308 311 0
-511 -107 512 0
63 749 0
-204 -14 206 0
-229 231 0
-97 387 0
-651 -50 0
-534 535 0
-288 21 290 0
25 349 0
-591 115 592 0
-291 22 293 0
-276 277 0
-738 740 0
-354 357 0
-226 -15 0
-62 731 0
-680 681 0
-359 364 0
-607 -116 0
-133 5 135 0
-621 623 0
36 484 0
-512 -108 0
-474 -36 475 0
-596 -46 598 0
-363 366 0
-343 344 0
-576 -101 577 0
-733 62 735 0
-22 21 0
-446 -78 0
-654 -107 0
-86 85 0
19 287 0
-144 -6 146 0
-226 227 0
-580 45 582 0
-547 -88 0
20 288 0
56 699 0
-389 -99 390 0
-452 -80 0
11 175 0
-37 513 0
-138 6 139 0
-735 736 0
31 418 0
-473 476 0
-551 44 553 0
-152 153 0
-98 389 0
42 549 0
-535 537 0
-526 -123 528 0
47 627 0
-25 379 0
-164 -109 0
-119 716 0
-277 279 0
-509 -107 0
-538 87 539 0
-282 20 0
-203 84 0
-239 247 0
-403 404 0
-498 -36 500 0
-705 102 0
-637 93 0
-145 146 0
-268 121 270 0
-54 679 0
-698 56 700 0
-470 471 0
-27 403 0
-91 647 0
-720 62 722 0
-654 655 0
-533 536 0
-83 364 0
71 422 0
-513 514 0
-440 -33 442 0
-403 -28 405 0
-483 36 485 0
-425 33 427 0
-697 -88 0
-409 -111 410 0
-274 -18 276 0
-317 318 0
53 674 0
-721 722 0
-337 339 0
-600 603 0
-295 76 0
-590 114 591 0
-700 701 0
-428 77 0
-524 -40 526 0
-521 523 0
-137 140 0
-647 649 0
-142 147 0
-337 104 338 0
65 131 0
-442 443 0
-485 37 487 0
26 368 0
-258 -109 259 0
-184 186 0
9 172 0
-666 671 0
-106 105 0
19 0
-255 -18 0
-443 -77 445 0
-719 61 721 0
-636 93 638 0
-353 84 0
-648 -93 0
-486 494 0
43 578 0
-50 652 0
-309 312 0
-635 636 0
-430 77 431 0
-338 105 0
-433 78 434 0
-579 45 581 0
-32 31 0
-168 -122 0
-208 -82 210 0
-713 -102 0
-211 -84 0
-377 378 0
-256 259 0
-236 237 0
-702 703 0
-60 -59 0
13 196 0
-745 746 0
9 0
-307 -75 0
-670 -127 0
-45 599 0
55 686 0
-423 424 0
-585 591 0
-686 688 0
-372 97 374 0
-507 510 0
-437 80 0
-487 488 0
-11 188 0
-6 159 0
-300 77 301 0
-380 -27 382 0
-574 577 0
-554 555 0
-16 230 0
-609 117 611 0
-674 675 0
-639 -48 641 0
-750 127 0
49 50 51 52 107 108 0
-3 141 0
-549 43 551 0
-416 417 0
-495 106 496 0
77 435 0
-472 -36 0
-749 64 0
-741 742 0
-80 79 0
-499 504 0
43 558 0
-158 159 0
-213 15 215 0
-284 285 0
-46 602 0
-503 506 0
-483 484 0
-611 118 613 0
-468 469 0
-667 668 0
-6 5 0
-409 411 0
-351 352 0
-210 211 0
-550 551 0
-429 432 0
-676 677 0
-492 497 0
-719 720 0
74 0
-296 301 0
-397 398 0
-235 -98 0
-461 462 0
14 197 0
-179 68 0
-601 604 0
-158 -6 160 0
-312 -76 313 0
-610 117 612 0
-343 -103 345 0
-301 78 0
-740 116 0
-370 28 372 0
-262 -111 0
-434 79 0
-85 -33 0
-669 670 0
-528 529 0
33 453 0
-66 65 0
-206 207 0
34 454 0
-328 330 0
-155 109 0
-270 271 0
-378 100 0
-628 49 630 0
-303 -21 305 0
-595 596 0
-322 89 324 0
-54 691 0
-551 559 0
-715 716 0
-54 53 0
-217 95 219 0
-536 538 0
-132 133 0
-26 380 0
-289 21 291 0
-555 561 0
-299 76 300 0
-477 480 0
-457 458 0
27 391 0
-278 280 0
-661 664 0
-439 448 0
-641 642 0
-132 4 134 0
-260 -109 261 0
-630 50 632 0
-673 -128 0
-524 525 0
-25 358 0
-462 91 0
-646 648 0
-117 620 0
-43 569 0
-262 265 0
-638 94 0
-708 709 0
-266 267 0
-706 -56 708 0
-435 78 436 0
-251 252 0
-734 63 736 0
-32 439 0
-264 -111 265 0
-134 5 136 0
-111 411 0
47 48 79 80 0
-534 85 0
-49 651 0
31 0
-662 126 663 0
-114 113 0
-562 102 0
-177 178 0
-205 -81 207 0
-140 96 0
-438 439 0
-502 503 0
-4 142 0
-248 110 249 0
-40 39 0
-710 -58 711 0
-180 181 0
-642 644 0
-169 10 0
-244 245 0
-16 252 0
-55 706 0
66 178 0
-344 -104 346 0
-185 187 0
-145 -6 0
-585 114 587 0
67 179 0
-568 571 0
-447 452 0
-676 71 0
-709 711 0
-38 507 0
55 698 0
-310 313 0
-400 113 402 0
-150 6 152 0
-193 -75 195 0
-741 -62 743 0
-721 62 723 0
-112 413 0
-231 233 0
-173 174 0
-21 308 0
-234 -97 235 0
-598 -113 0
-498 499 0
-588 46 589 0
-191 -74 193 0
-153 8 0
-620 622 0
-87 -47 0
-36 35 0
-39 524 0
-606 -115 607 0
-165 -110 0
-682 683 0
-240 241 0
-218 95 220 0
-75 314 0
-459 89 461 0
11 0
-687 689 0
-261 -110 262 0
-491 106 0
-283 284 0
-246 18 247 0
-367 26 369 0
-749 750 0
73 184 0
-88 87 0
-608 609 0
-166 167 0
-716 -120 0
-284 68 0
-491 492 0
83 355 0
-587 115 0
-642 -50 0
64 750 0
-457 36 459 0
-14 13 0
-482 -92 0
17 266 0
-751 128 0
-29 415 0
-209 -83 211 0
-224 -14 226 0
-314 -76 315 0
26 350 0
-415 -30 0
-478 -90 479 0
-649 -93 650 0
-128 -127 -64 -63 0
-309 -75 310 0
-726 729 0
-405 406 0
-70 -69 -68 -67 -20 -19 0
-247 109 248 0
-237 17 239 0
-241 248 0
-436 79 437 0
-533 85 535 0
-350 83 352 0
-469 -35 471 0
-410 412 0
-523 126 0
-245 250 0
-472 473 0
-35 474 0
-10 9 0
-74 73 0
-656 657 0
-214 215 0
-734 737 0
-336 338 0
-540 -42 542 0
-742 -63 744 0
-373 97 375 0
-18 275 0
-239 18 241 0
-89 480 0
-604 -115 0
-180 12 182 0
-608 46 610 0
-723 724 0
-602 605 0
-62 61 0
-431 78 0
-582 583 0
-579 588 0
-120 119 0
-675 71 677 0
-212 14 214 0
37 38 39 40 0
-728 730 0
-214 15 216 0
17 246 0
-406 408 0
-612 118 614 0
-144 148 0
-108 107 0
-66 -65 -2 -1 0
-391 392 0
-543 -86 545 0
-238 17 240 0
-564 -43 566 0
-559 99 560 0
-397 111 399 0
-525 -123 527 0
-594 599 0
-541 -85 543 0
-228 -16 229 0
-340 106 0
-233 -97 0
-506 -106 0
-696 -87 0
-176 65 0
-499 -37 501 0
-238 239 0
-200 202 0
-129 2 0
-572 -99 573 0
-384 386 0
-159 -7 161 0
-728 -62 0
-294 76 296 0
-26 359 0
-602 -113 603 0
-727 -61 0
-385 -97 386 0
-509 512 0
-489 490 0
-188 189 0
-14 225 0
-587 592 0
-666 -125 668 0
10 173 0
-699 57 701 0
-79 626 0
-535 86 0
-117 -39 0
-556 557 0
-304 -21 306 0
-290 298 0
-620 -118 621 0
-94 93 0
-59 725 0
-241 109 243 0
59 717 0
-133 138 0
125 662 0
-563 -42 565 0
-464 89 465 0
-517 520 0
-271 123 273 0
-103 -15 0
21 317 0
-701 58 703 0
-629 49 631 0
-631 50 633 0
-319 23 321 0
-224 225 0
-351 83 353 0
-98 0
-360 -83 362 0
-243 110 245 0
-690 691 0
-486 38 488 0
-569 572 0
-674 54 676 0
-428 431 0
-508 -106 509 0
-733 734 0
-311 314 0
-291 292 0
-578 44 580 0
-253 -17 255 0
81 200 0
-431 434 0
-616 617 0
-232 234 0
-529 -125 531 0
-441 -34 443 0
-358 359 0
-567 -44 0
-40 525 0
-206 -81 208 0
-542 543 0
-163 -109 165 0
-624 -48 0
-220 221 0
-425 426 0
-738 115 0
-573 -100 574 0
-553 99 555 0
-17 257 0
-225 228 0
64 739 0
-303 308 0
37 493 0
-626 -80 0
-34 469 0
-530 531 0
-172 10 0
-57 714 0
-593 -44 595 0
12 176 0
-68 67 0
-96 234 0
-285 69 0
-287 288 0
-391 28 393 0
32 419 0
-92 649 0
-272 273 0
-612 613 0
-151 154 0
-157 110 0
48 628 0
-597 598 0
-476 479 0
-438 -32 440 0
-355 84 356 0
-678 -54 680 0
-553 560 0
-198 199 0
-496 107 497 0
-393 29 395 0
-461 90 0
-147 -6 148 0
-232 -96 233 0
-453 34 455 0
-441 449 0
-747 -115 0
-401 113 0
45 608 0
-668 672 0
-527 -124 529 0
-648 650 0
65 177 0
-128 127 0
-23 329 0
-488 495 0
-89 -25 0
-41 540 0
82 202 0
85 536 0
65 0
-354 85 0
-242 109 244 0
-516 517 0
-166 -8 0
34 432 0
-616 -46 618 0
-148 -95 149 0
-222 97 0
-194 195 0
-515 -40 0
-43 593 0
-198 81 0
-231 -96 0
-514 -39 0
-257 260 0
-199 201 0
-349 26 351 0
-105 510 0
-42 41 0
-207 -82 209 0
-383 385 0
-382 -28 0
-325 326 0
-586 587 0
-121 278 0
-685 56 0
-58 712 0
-615 120 0
-423 32 425 0
-565 -43 567 0
-629 630 0
-508 511 0
-196 14 198 0
-470 -35 472 0
-24 331 0
-418 32 0
-746 -115 748 0
-172 173 0
-371 372 0
-691 -55 693 0
-167 -121 0
-660 126 0
-210 -83 0
-696 697 0
-27 383 0
-174 104 0
-125 671 0
-592 116 0
-259 262 0
-48 625 0
-240 18 242 0
-149 -96 0
16 237 0
-501 505 0
-184 74 185 0
