p cnf 708 1335
-102 101 0
-122 537 0
99 356 0
-334 -26 336 0
-9 185 0
-62 704 0
-707 -117 0
-426 427 0
-143 5 145 0
-631 632 0
-631 52 633 0
-43 573 0
-325 329 0
-28 27 0
-38 508 0
-512 -101 514 0
-122 0
-408 -82 410 0
-493 494 0
-563 -96 0
-352 353 0
-557 558 0
-421 115 423 0
-20 268 0
-338 -28 340 0
-49 619 0
-303 65 0
-222 -90 0
-203 -77 0
-257 80 259 0
-427 -114 0
-426 -113 0
-560 561 0
-249 -72 0
-677 60 679 0
-624 625 0
-603 604 0
-161 162 0
-319 27 321 0
-566 109 568 0
-670 -124 0
-679 87 681 0
-486 487 0
-496 101 498 0
-645 -95 0
-24 23 0
-204 -12 205 0
-543 74 0
-510 516 0
41 539 0
-75 -45 0
-164 106 0
-39 515 0
-321 28 323 0
-154 156 0
-168 -8 0
-666 124 0
-616 619 0
-76 75 0
-46 592 0
-212 214 0
-11 204 0
-21 276 0
-423 116 0
107 461 0
-686 -60 687 0
49 50 115 116 117 118 0
-605 606 0
-351 99 353 0
-683 686 0
-95 -47 0
75 630 0
-663 664 0
-2 1 0
-584 585 0
-526 122 528 0
-122 121 0
-541 73 543 0
-235 -16 236 0
-425 428 0
-21 289 0
-339 -89 341 0
-588 68 589 0
-437 67 439 0
-209 210 0
-530 124 0
-356 100 357 0
-341 -90 0
-8 0
-376 74 0
-577 578 0
81 398 0
-135 136 0
-377 -30 379 0
-532 -121 534 0
-238 -100 0
-73 -33 0
-652 111 0
-419 114 421 0
-568 110 0
-7 177 0
-337 -28 339 0
-446 -67 447 0
-202 203 0
-444 446 0
-386 387 0
-655 -54 657 0
-28 360 0
-50 49 0
-103 -43 0
14 213 0
-652 654 0
-97 -27 0
-667 -56 669 0
-453 454 0
-216 -13 218 0
-264 -19 0
-313 -24 0
-206 -78 0
-246 -114 0
-174 119 176 0
-361 -99 363 0
-3 137 0
-418 113 420 0
-96 95 0
-580 -111 581 0
-589 69 590 0
-136 138 0
-429 -115 0
-379 380 0
67 588 0
-470 -108 471 0
-64 0
-145 6 147 0
-47 602 0
-501 102 502 0
-97 -37 0
-46 45 0
-465 470 0
57 0
-110 109 0
1 125 0
-405 -32 407 0
-79 -11 0
-434 435 0
-198 -10 200 0
-444 -66 445 0
-403 -31 405 0
-234 236 0
-196 77 197 0
-371 72 373 0
17 18 71 72 0
-488 -84 489 0
-552 -74 0
-517 521 0
-195 12 196 0
-439 68 0
-475 83 477 0
-628 52 0
-219 220 0
-93 561 0
-97 -47 0
22 282 0
-175 119 0
-82 81 0
-10 186 0
-132 80 0
-546 75 547 0
-209 13 0
-306 309 0
13 211 0
-77 317 0
-611 612 0
-152 -6 0
-404 -32 406 0
-397 83 0
-459 108 0
-379 -71 381 0
-120 0
-244 -113 246 0
-10 199 0
-232 235 0
-571 111 572 0
-245 -113 0
-494 500 0
-678 679 0
-294 296 0
-153 155 0
1 0
-45 591 0
-647 54 649 0
-619 621 0
-498 502 0
-691 61 693 0
-240 113 242 0
-469 -109 0
-154 -97 0
-420 421 0
-279 280 0
-468 -108 0
-604 605 0
-185 -10 187 0
-91 452 0
-141 142 0
30 369 0
-190 11 192 0
18 251 0
-466 467 0
-671 672 0
-693 62 695 0
-561 -94 0
-570 110 571 0
-549 554 0
-597 -68 598 0
-302 65 304 0
-334 335 0
-193 194 0
-533 534 0
-309 -64 310 0
-492 39 494 0
-158 7 160 0
-606 -88 0
-33 448 0
-27 342 0
-117 0
-50 624 0
-397 400 0
-283 119 285 0
83 479 0
-596 599 0
-56 55 0
-258 80 260 0
-434 65 436 0
-401 402 0
-260 261 0
-600 601 0
-330 89 331 0
23 24 25 26 77 78 0
-233 -15 0
-678 60 680 0
-143 144 0
-189 10 191 0
-22 290 0
-81 -25 0
-586 68 0
-598 -69 599 0
-320 27 322 0
71 374 0
23 297 0
-268 270 0
-502 103 0
-511 512 0
8 174 0
24 298 0
-687 -87 0
-349 -92 0
-137 -4 138 0
-393 396 0
-636 638 0
-401 -30 403 0
-275 -21 0
-456 107 458 0
-116 115 0
-322 28 324 0
-698 699 0
-40 519 0
-456 461 0
-85 -41 0
-516 -101 517 0
-320 321 0
-460 463 0
-339 344 0
-440 441 0
-703 705 0
-486 -84 0
-645 646 0
-3 149 0
-582 46 584 0
-225 15 227 0
-104 103 0
-61 702 0
-445 447 0
-167 168 0
-507 508 0
-365 -100 366 0
-646 -96 0
-101 -31 0
-30 29 0
-292 -120 0
-125 2 127 0
-323 89 325 0
57 671 0
-352 99 354 0
69 0
58 672 0
-53 655 0
-559 560 0
-187 -63 0
-604 -86 0
-418 419 0
-251 19 253 0
-236 -99 0
-617 618 0
-316 317 0
-458 462 0
-381 -72 0
-414 -83 415 0
-301 302 0
-359 -28 361 0
19 20 21 22 105 106 107 108 0
-156 -98 0
-626 627 0
-420 114 422 0
-136 -4 0
-583 588 0
-593 -67 595 0
-684 685 0
-48 603 0
-231 -14 233 0
-163 164 0
-92 453 0
-368 369 0
-227 228 0
-97 -35 0
-428 -114 429 0
-552 553 0
-168 170 0
-90 89 0
-66 446 0
-672 673 0
-508 515 0
-48 616 0
-537 -123 538 0
-161 8 163 0
13 223 0
-235 237 0
57 674 0
-703 -97 0
-16 15 0
-270 -80 271 0
-284 120 286 0
-297 298 0
31 392 0
-361 362 0
-259 81 261 0
-340 341 0
-383 -72 384 0
-271 -81 0
-523 40 525 0
-18 248 0
-665 666 0
-544 547 0
-4 3 0
-223 224 0
-579 -110 580 0
-333 92 0
-485 489 0
-548 549 0
-407 408 0
-682 -58 684 0
-211 14 212 0
-460 109 0
-591 592 0
-149 150 0
-58 683 0
-73 554 0
-275 276 0
-315 -26 0
53 635 0
-459 460 0
-289 -22 291 0
-406 -81 408 0
-431 -116 0
-583 67 585 0
-49 623 0
-632 53 634 0
-425 -113 427 0
-191 11 193 0
-541 542 0
-618 -50 0
-654 112 0
-64 63 0
-483 488 0
56 653 0
-388 389 0
-232 -15 234 0
-651 653 0
-593 594 0
-150 153 0
-380 -72 382 0
-6 166 0
-294 -121 0
-455 456 0
-314 315 0
-34 449 0
38 474 0
-16 237 0
-54 656 0
-639 640 0
-390 32 0
-613 103 0
-451 -91 0
-692 61 694 0
-381 382 0
-60 59 0
-124 123 0
-342 346 0
-706 707 0
-181 10 183 0
-201 205 0
61 62 117 118 0
-584 67 586 0
-448 449 0
-307 308 0
-293 -120 294 0
-683 -59 685 0
-503 101 504 0
-694 62 696 0
-194 77 0
-175 176 0
-394 397 0
-115 -39 0
-578 581 0
-38 37 0
-558 559 0
-355 101 0
-268 -79 269 0
-424 -32 426 0
-97 -13 0
-430 -115 431 0
-183 63 0
-199 204 0
-625 626 0
-183 184 0
-575 -109 577 0
-84 83 0
-402 411 0
-272 -81 273 0
-406 413 0
-465 -107 467 0
-9 198 0
-692 693 0
-308 310 0
-115 625 0
-350 28 352 0
-395 81 396 0
-346 -89 347 0
-362 -100 364 0
-293 295 0
-371 375 0
-544 75 0
-89 -19 0
-286 121 288 0
-618 620 0
-697 98 0
-34 33 0
-8 171 0
-29 377 0
-98 97 0
-392 32 393 0
-539 540 0
-288 122 0
-248 -71 0
-608 49 610 0
-380 384 0
-147 97 0
-325 90 0
16 240 0
-192 12 194 0
-422 423 0
-685 687 0
-281 282 0
-80 272 0
-427 429 0
-93 454 0
-91 -31 0
-62 707 0
-60 0
-347 -90 348 0
-71 249 0
-661 -111 0
-117 627 0
-218 -14 220 0
-169 171 0
-494 40 496 0
-701 -62 0
-12 11 0
-689 -88 0
-119 293 0
-70 69 0
-167 -7 0
-274 275 0
-149 -4 151 0
-478 481 0
-556 -76 0
-157 158 0
-276 -22 0
-595 -68 0
-58 57 0
-515 -40 516 0
-107 280 0
53 647 0
-20 19 0
-671 58 0
-360 365 0
-157 6 159 0
-514 -102 0
-525 526 0
-267 269 0
-658 -56 660 0
-688 -87 689 0
-345 349 0
-478 85 0
-93 0
-8 7 0
-153 -6 154 0
-72 71 0
-461 108 462 0
-340 -89 0
-392 395 0
9 181 0
-539 42 541 0
-107 -31 0
-363 -100 0
-704 -97 705 0
-134 137 0
-659 660 0
-422 115 0
-118 117 0
-4 139 0
-199 -11 201 0
-285 120 287 0
-44 560 0
-55 667 0
-322 323 0
43 564 0
-83 -33 0
-39 531 0
-647 648 0
-607 48 609 0
-44 43 0
-172 -106 0
-6 155 0
-17 262 0
-326 330 0
-648 55 650 0
-248 249 0
-573 574 0
-621 -103 622 0
-131 132 0
-447 -68 0
-630 76 0
-559 -44 0
-315 316 0
-194 197 0
-433 65 435 0
-354 100 0
-274 -20 0
-113 428 0
-241 242 0
-180 -120 0
-297 24 299 0
-358 102 0
-60 699 0
29 368 0
-566 567 0
17 250 0
-94 562 0
-178 -119 180 0
-672 69 0
-47 615 0
-633 634 0
-308 -64 0
-331 90 332 0
-34 441 0
-632 635 0
-92 91 0
-291 -119 0
52 629 0
-495 496 0
-640 -53 642 0
-354 355 0
-696 97 0
-479 84 480 0
-699 702 0
-18 17 0
-234 -16 0
-121 535 0
-105 -15 0
-363 364 0
-499 503 0
-562 563 0
-490 -86 0
-441 444 0
-413 -82 414 0
-114 430 0
-473 38 475 0
-366 -101 367 0
-685 -60 0
-61 706 0
-151 -5 0
-289 290 0
-387 392 0
-409 410 0
-116 626 0
-551 555 0
31 416 0
-473 474 0
-296 -122 0
-374 72 375 0
-166 -7 168 0
-205 -77 206 0
-242 114 0
-151 152 0
-353 100 355 0
-215 216 0
-557 -42 0
-355 358 0
-528 123 530 0
10 190 0
-78 77 0
-385 -74 0
-455 36 457 0
-453 -93 0
-543 544 0
-607 608 0
-85 604 0
-131 79 0
-281 22 283 0
-285 286 0
-576 -110 578 0
-675 59 677 0
56 664 0
-443 -66 0
-578 -111 0
-129 130 0
-587 69 0
-480 85 481 0
-177 -8 179 0
-637 95 638 0
-14 232 0
-532 535 0
-155 -97 156 0
-353 357 0
3 141 0
-393 81 394 0
-535 -122 536 0
-19 274 0
-542 74 544 0
33 34 35 36 91 92 93 94 0
-278 279 0
-369 71 371 0
-609 49 611 0
-32 425 0
-548 -42 550 0
-113 -21 0
-267 -79 0
-117 -55 0
-644 -95 646 0
-674 58 676 0
-522 -104 0
-357 101 358 0
-484 -83 486 0
-510 -40 512 0
-567 110 569 0
-554 -74 555 0
-125 126 0
-70 -69 -58 -57 0
-189 190 0
-529 530 0
-448 -34 0
-271 273 0
-67 597 0
-25 334 0
-52 51 0
-495 40 497 0
-6 0
-440 -34 442 0
-197 78 0
-173 8 175 0
-59 686 0
-629 75 0
-256 257 0
-87 -51 0
-134 -3 136 0
-518 522 0
-114 0
-150 -5 152 0
-220 -89 222 0
-40 532 0
15 239 0
-585 589 0
-298 63 300 0
-391 81 0
-185 186 0
-518 -103 0
-327 331 0
-388 31 390 0
-16 0
-659 -56 661 0
-404 412 0
-520 -102 521 0
-48 47 0
-372 72 0
-112 111 0
-345 -91 0
-694 695 0
-124 0
-310 312 0
-252 253 0
-610 50 612 0
-547 76 0
-7 169 0
-635 637 0
-253 20 255 0
-603 -85 0
-514 518 0
-60 688 0
-436 437 0
-564 44 566 0
-38 483 0
-324 89 0
-41 557 0
-100 99 0
-236 238 0
11 195 0
-378 383 0
-499 40 500 0
-702 704 0
-596 -69 0
-135 -3 0
-382 385 0
-623 -50 0
55 651 0
-170 -105 0
-95 563 0
-26 25 0
-245 246 0
-643 -54 645 0
-581 -112 0
-214 90 0
-335 -27 337 0
-565 570 0
-29 401 0
-673 70 0
-318 26 320 0
-162 105 164 0
-441 -65 443 0
-445 -67 0
-400 84 0
-512 517 0
-613 614 0
-241 113 0
58 675 0
-190 195 0
-594 -68 596 0
-364 -101 0
-276 277 0
-106 279 0
-680 681 0
-601 602 0
-230 100 0
-23 313 0
-159 160 0
-500 504 0
-290 -119 292 0
-255 79 257 0
-484 485 0
-22 21 0
-572 112 0
-228 99 230 0
-86 85 0
-591 -46 593 0
-527 528 0
-481 86 0
-567 571 0
-182 63 184 0
45 582 0
-314 -25 0
-210 212 0
-521 -103 522 0
-700 -61 0
-387 31 389 0
-535 537 0
-477 478 0
-336 337 0
-15 243 0
-97 -19 0
-332 91 333 0
-664 123 666 0
75 0
-35 450 0
-661 662 0
-702 -62 703 0
-252 19 254 0
-695 97 697 0
-138 -79 0
-4 150 0
-403 404 0
-142 5 144 0
-262 263 0
-86 605 0
-505 103 506 0
-145 146 0
-513 -101 0
-130 79 132 0
-310 -65 0
-208 211 0
-306 -63 308 0
-101 -35 0
-250 251 0
-109 -39 0
-469 472 0
-270 272 0
-513 514 0
-435 66 437 0
-133 134 0
109 570 0
10 182 0
-553 -75 0
-464 -36 466 0
-227 16 229 0
-138 140 0
-395 398 0
-20 275 0
-471 -109 472 0
-59 698 0
-599 -70 0
-200 201 0
59 690 0
-700 701 0
-633 53 0
-432 34 434 0
-263 266 0
-243 244 0
-442 443 0
-127 3 129 0
-568 569 0
-317 -78 0
-261 82 0
-106 105 0
-202 -12 0
-467 471 0
-44 574 0
-33 440 0
-451 452 0
-656 -55 658 0
-26 335 0
-529 123 0
-489 -85 490 0
-462 109 463 0
-706 -62 0
-373 376 0
-592 597 0
-4 0
-32 31 0
-367 -102 0
-463 110 0
-266 -20 267 0
-63 309 0
-705 -98 0
-377 378 0
-411 -32 412 0
-558 -43 0
-561 562 0
-200 -11 202 0
-109 579 0
-83 488 0
-540 73 542 0
-370 71 372 0
-273 -82 0
-454 -94 0
-303 304 0
-148 98 0
-686 688 0
-628 629 0
11 207 0
-482 -38 484 0
-708 -118 0
12 208 0
-555 -75 556 0
-165 166 0
-428 430 0
-474 83 476 0
-370 371 0
-229 230 0
55 663 0
-280 -108 0
-170 172 0
-146 97 148 0
-674 675 0
-553 556 0
-201 -12 203 0
-653 111 654 0
-515 519 0
-64 311 0
-217 218 0
-335 342 0
73 545 0
-416 417 0
-476 84 478 0
-80 79 0
-229 99 0
-299 300 0
-2 -1 0
-336 -27 338 0
-107 470 0
-690 60 692 0
-466 -107 468 0
27 326 0
-140 -80 0
-316 -77 0
-299 63 301 0
-626 -117 0
-468 469 0
-667 668 0
-684 -59 0
-6 5 0
-65 444 0
69 673 0
-615 -48 617 0
-590 70 0
-13 231 0
-663 56 665 0
-450 -36 0
-550 551 0
-312 -66 0
-602 -48 0
-449 -35 0
-676 677 0
-292 294 0
-619 -50 620 0
-601 -47 0
-215 -12 217 0
-655 656 0
-611 50 613 0
-193 12 0
-277 278 0
-301 64 303 0
-71 383 0
-254 20 256 0
32 395 0
-602 603 0
-186 -63 188 0
-24 314 0
-487 -85 0
-509 -39 511 0
-97 -43 0
-224 15 226 0
51 0
-219 -14 221 0
-464 465 0
-56 668 0
-93 -37 0
-669 670 0
-282 119 284 0
-66 65 0
-51 639 0
-295 -121 296 0
-169 -8 170 0
-290 293 0
-18 263 0
-531 532 0
-390 391 0
-442 -65 0
-595 596 0
-211 213 0
-278 -106 0
-635 54 636 0
-80 0
-54 53 0
-536 538 0
-277 -105 0
28 351 0
-23 305 0
-500 101 501 0
-97 -53 0
-457 458 0
25 318 0
-36 451 0
-137 139 0
-184 64 0
-540 545 0
-641 642 0
-341 345 0
-71 -23 0
-536 -123 0
-256 79 258 0
-509 510 0
-394 82 0
-344 348 0
-477 84 0
-587 590 0
-624 -115 0
-467 -108 469 0
-213 89 214 0
-676 59 678 0
-309 311 0
-450 451 0
39 499 0
-600 -46 0
-549 -73 551 0
-342 -28 343 0
-114 113 0
-15 235 0
-37 482 0
-265 -20 0
-318 319 0
-177 178 0
-343 -89 344 0
-396 399 0
-438 439 0
-701 703 0
-237 -99 238 0
-43 559 0
-179 -119 0
-40 39 0
-680 87 0
-76 -75 -52 -51 0
-443 445 0
-485 -84 487 0
-517 -102 518 0
-660 -111 662 0
-141 4 143 0
-27 359 0
-321 327 0
-457 107 459 0
-497 101 0
-210 14 0
-483 -83 485 0
-504 102 505 0
41 42 43 44 93 94 95 96 0
35 455 0
-223 14 225 0
-247 248 0
-212 89 0
-389 393 0
-307 -63 0
36 456 0
-117 708 0
-615 616 0
-173 174 0
-436 66 438 0
-576 580 0
-620 622 0
-36 35 0
-698 -60 700 0
-682 683 0
-416 32 418 0
-46 601 0
-319 326 0
-25 315 0
40 524 0
5 157 0
-502 506 0
-225 226 0
-99 365 0
-323 328 0
-424 425 0
-687 689 0
37 491 0
-217 -13 219 0
6 158 0
-283 284 0
-311 -65 312 0
38 492 0
-88 87 0
-487 490 0
-429 431 0
-305 -24 307 0
-585 68 587 0
-389 32 391 0
32 417 0
-506 104 0
-491 492 0
-649 55 0
-350 351 0
-128 4 130 0
-641 -53 643 0
-534 536 0
-41 548 0
-369 374 0
-574 579 0
-208 13 210 0
-657 -55 659 0
-14 13 0
-233 234 0
52 632 0
-50 621 0
-304 66 0
-338 339 0
-79 270 0
-452 -92 0
-344 -90 345 0
-12 216 0
-221 222 0
-412 -81 413 0
-405 406 0
-538 -124 0
-264 265 0
-243 -16 245 0
-577 -110 0
-97 -31 0
-147 148 0
-531 -40 533 0
-269 271 0
-77 -17 0
-562 -95 0
-10 9 0
-152 154 0
-622 -104 0
-74 73 0
-221 -89 0
-396 82 397 0
-262 -18 264 0
-492 499 0
-2 134 0
-476 480 0
-496 501 0
-129 4 131 0
-28 346 0
-22 277 0
-617 -49 0
-62 61 0
-582 583 0
-669 -123 0
-120 119 0
-458 108 460 0
-699 -61 701 0
-681 88 0
-260 81 0
-534 -122 0
-551 -74 553 0
-324 325 0
-203 206 0
-35 464 0
-636 95 0
-649 650 0
-52 640 0
-265 267 0
-207 208 0
-524 121 526 0
-648 651 0
-108 107 0
-160 8 162 0
42 540 0
-328 332 0
7 173 0
-410 415 0
-386 30 388 0
-57 682 0
-474 479 0
-31 411 0
-575 576 0
-642 -54 644 0
-545 74 546 0
-373 73 0
33 432 0
-24 306 0
-328 90 329 0
34 433 0
-207 12 209 0
-614 104 0
-565 109 567 0
-31 424 0
54 648 0
-651 56 652 0
60 691 0
28 330 0
-569 111 0
-5 153 0
-247 -18 0
-399 83 400 0
-305 306 0
-638 96 0
-662 -112 0
-627 -118 0
-650 652 0
-37 507 0
-408 414 0
-372 373 0
-30 402 0
-231 232 0
-639 -52 641 0
-192 196 0
-42 549 0
-94 93 0
21 281 0
-382 -73 0
-623 624 0
-472 -110 0
-482 483 0
-181 182 0
-337 343 0
-45 600 0
-533 -121 0
-368 30 370 0
-384 -73 385 0
-491 38 493 0
44 565 0
-498 102 0
-139 -79 140 0
-98 0
-364 367 0
-690 691 0
-569 572 0
-326 28 327 0
-165 -6 167 0
-432 433 0
-291 292 0
-163 105 0
-475 476 0
-279 -107 0
-120 295 0
-493 39 495 0
-159 7 161 0
-665 123 0
-550 -73 552 0
27 350 0
-239 16 241 0
9 189 0
-99 -19 0
-16 244 0
-26 316 0
-327 89 328 0
-269 -80 0
-11 215 0
-362 366 0
-410 -83 0
-176 120 0
-409 -82 0
-609 610 0
-87 606 0
2 126 0
-68 67 0
-625 -116 0
-287 288 0
-166 169 0
-398 82 399 0
-348 -91 349 0
40 503 0
-650 56 0
46 583 0
-1 133 0
-360 -99 362 0
29 386 0
-616 -49 618 0
-105 278 0
-198 199 0
-287 121 0
-17 247 0
-144 6 146 0
-523 524 0
-643 644 0
-133 -2 135 0
-343 347 0
-707 708 0
-542 546 0
-634 54 0
-226 16 228 0
-507 -38 509 0
-111 -49 0
-449 450 0
-407 -81 409 0
-127 128 0
-191 192 0
-402 -31 404 0
-126 3 128 0
-351 356 0
-452 453 0
-594 598 0
51 628 0
-657 658 0
-250 18 252 0
-375 73 376 0
14 224 0
-300 64 302 0
-511 -40 513 0
-42 558 0
37 473 0
-519 -101 520 0
-258 259 0
-179 180 0
-8 178 0
26 319 0
-508 -39 510 0
-573 -44 575 0
-66 0
-329 91 0
-42 41 0
47 607 0
-525 121 527 0
-592 -67 594 0
-417 113 419 0
39 523 0
1 2 0
48 608 0
-586 587 0
-36 465 0
-171 -105 172 0
-266 268 0
-560 -93 0
-415 -84 0
-378 -71 380 0
-629 630 0
-5 165 0
-187 188 0
-329 333 0
-574 -109 576 0
-313 314 0
-19 266 0
-620 -103 0
-391 394 0
-634 636 0
-188 -64 0
30 387 0
-605 -87 0
-527 122 529 0
-612 103 614 0
-497 498 0
-696 697 0
4 142 0
-30 378 0
54 637 0
-254 255 0
-263 -19 265 0
51 631 0
-516 520 0
-239 240 0
-438 67 0
-359 360 0
-668 -123 670 0
-501 505 0
-564 565 0
45 46 47 48 85 86 87 88 0
