p cnf 440 827
-274 -41 276 0
-16 15 0
-266 267 0
-297 298 0
-211 212 0
-176 179 0
-287 55 0
-417 -36 0
-349 48 351 0
-371 70 0
-340 341 0
37 426 0
39 81 0
-212 -17 214 0
-216 218 0
-275 -41 277 0
-153 39 155 0
-57 -27 0
-215 -18 216 0
-306 -57 0
30 368 0
-375 72 0
-391 -43 0
11 135 0
-79 80 0
-28 27 0
-346 28 348 0
-4 3 0
-227 74 0
-302 309 0
-223 224 0
-261 -68 0
-137 138 0
-82 83 0
-118 8 0
-286 24 0
-314 25 316 0
-30 377 0
65 120 0
-260 -67 0
-400 -34 402 0
-122 123 0
-54 -53 -10 -9 0
-216 -61 0
-176 53 177 0
-238 -74 239 0
-306 311 0
-372 375 0
-251 256 0
-317 320 0
-352 353 0
9 10 61 62 0
-272 44 0
-364 -30 0
-409 57 0
-438 439 0
-39 166 0
-95 -51 97 0
-61 -11 0
-87 89 0
16 200 0
8 0
69 373 0
-440 78 0
-40 39 0
-329 -64 0
-172 176 0
-13 160 0
-94 95 0
-357 359 0
-125 126 0
-35 419 0
-267 271 0
53 123 0
55 294 0
-330 331 0
-31 389 0
-275 276 0
-321 -24 323 0
-413 -34 415 0
-110 114 0
-344 -77 345 0
-364 365 0
-212 215 0
-178 53 179 0
-279 -42 280 0
41 270 0
-415 -35 417 0
-52 51 0
-276 -42 278 0
-163 -40 165 0
-219 221 0
-75 342 0
-231 76 0
-192 193 0
22 265 0
-36 431 0
-203 18 205 0
-405 35 407 0
-138 66 140 0
-69 263 0
22 283 0
-201 202 0
-265 41 267 0
-83 3 85 0
-421 -58 0
-400 401 0
-31 393 0
-351 49 353 0
-376 377 0
33 396 0
-255 258 0
-133 -45 0
-24 23 0
-85 4 0
-89 52 0
-321 322 0
-27 354 0
19 241 0
-101 6 103 0
34 397 0
-341 343 0
-64 63 0
-403 -50 0
-259 260 0
-69 -25 0
-173 174 0
-25 338 0
-315 319 0
-118 119 0
-83 86 0
-190 -53 192 0
7 0
-247 46 248 0
-323 324 0
-15 211 0
-193 -55 0
-268 269 0
-402 -49 0
-425 38 0
-213 214 0
-14 185 0
-326 -63 0
-291 294 0
4 99 0
-170 175 0
-416 -36 418 0
-226 74 228 0
-241 20 243 0
-36 35 0
-76 75 0
21 264 0
-267 42 269 0
21 282 0
-73 238 0
7 118 0
-225 226 0
-416 420 0
-429 72 0
-424 425 0
-369 370 0
-173 16 0
-314 315 0
-225 73 227 0
-48 47 0
-9 124 0
-354 -28 356 0
-386 43 388 0
3 98 0
-88 51 89 0
-244 248 0
-2 1 0
-296 58 0
-418 -57 0
-252 253 0
-27 362 0
-431 -37 433 0
-111 112 0
-116 6 0
-87 51 0
-341 -76 0
-99 104 0
-224 73 226 0
-76 344 0
35 422 0
6 117 0
-436 437 0
-12 0
-292 56 293 0
-350 351 0
-360 -49 361 0
-273 -22 275 0
-174 177 0
-60 59 0
36 423 0
-147 149 0
-228 75 0
-283 288 0
-269 43 0
-271 43 272 0
-14 13 0
-148 -67 0
-158 41 159 0
-112 115 0
-209 210 0
-132 -45 134 0
-345 -78 0
-358 -48 359 0
-113 -6 114 0
-22 274 0
-312 24 314 0
-128 45 130 0
-98 4 100 0
-135 12 137 0
-51 -13 0
-278 -43 0
-362 363 0
-395 -52 0
-393 394 0
-106 60 0
-338 339 0
-214 216 0
-294 56 295 0
-14 161 0
-362 -28 0
-205 61 207 0
-358 360 0
-126 -62 0
-26 25 0
-33 413 0
-245 246 0
24 291 0
77 0
-190 191 0
-135 136 0
-80 81 0
-343 345 0
-125 -61 0
-233 238 0
-129 45 0
-339 342 0
-51 -27 0
-160 -14 162 0
-264 265 0
-285 24 287 0
-437 -72 0
-108 113 0
-152 39 154 0
-85 87 0
-67 -17 0
-425 427 0
-206 62 208 0
-38 37 0
-47 -21 0
-382 -70 383 0
-370 70 372 0
-116 117 0
-162 -39 164 0
-202 18 204 0
23 312 0
-92 93 0
-309 -56 310 0
-114 -59 115 0
-396 34 398 0
10 122 0
-196 -54 197 0
18 224 0
-136 65 138 0
-417 418 0
-239 -75 240 0
-363 -29 0
-32 390 0
13 151 0
-10 9 0
-251 -45 253 0
26 331 0
-51 395 0
-99 5 101 0
-230 75 231 0
-74 73 0
-50 49 0
-59 -9 0
-414 419 0
-217 219 0
-315 26 317 0
-427 71 0
-295 57 296 0
-369 69 371 0
-305 -56 0
-67 261 0
-240 -76 0
-29 364 0
-242 45 244 0
-283 23 285 0
12 136 0
-322 -25 324 0
-11 143 0
-398 399 0
-312 313 0
-168 -42 0
-242 247 0
-100 5 102 0
-411 57 412 0
-325 -26 0
-22 21 0
-318 26 319 0
-198 -56 0
-237 -75 0
-28 355 0
-62 61 0
-232 -18 234 0
-50 0
-163 167 0
-51 -19 0
9 121 0
-165 -41 0
-59 -23 0
-256 -46 257 0
-102 6 0
-390 -43 392 0
-171 172 0
-236 -74 0
-210 64 0
-336 77 0
-293 57 0
-383 -71 384 0
-303 -55 305 0
-80 39 0
-10 125 0
53 0
25 330 0
-339 -75 341 0
-289 292 0
-16 212 0
-45 -13 0
-34 33 0
-179 182 0
-201 17 203 0
-327 -26 328 0
-119 65 0
-180 55 0
-285 289 0
-154 40 156 0
-107 -4 109 0
-207 208 0
-418 421 0
-388 44 0
31 32 51 52 0
-187 195 0
-330 26 332 0
-347 47 349 0
-192 -54 0
-59 -19 0
-350 48 352 0
-34 401 0
-391 392 0
23 288 0
-422 423 0
-336 337 0
-123 54 0
-367 368 0
39 0
-246 249 0
17 223 0
-46 45 0
-172 16 174 0
-142 68 0
-245 46 0
-257 -47 258 0
-103 59 0
-218 -62 0
-109 -5 111 0
-401 -49 403 0
-101 105 0
-317 63 0
-45 256 0
-164 165 0
-427 429 0
-109 110 0
53 181 0
-342 -76 343 0
5 104 0
20 242 0
-152 157 0
-438 38 0
-19 250 0
-434 435 0
37 438 0
-348 349 0
-191 -54 193 0
-161 166 0
-19 259 0
-121 10 0
-262 263 0
-301 -24 303 0
-18 233 0
-23 307 0
-414 -35 416 0
-222 -64 0
2 80 0
-435 -71 437 0
-157 40 158 0
-12 11 0
-148 150 0
-420 -57 421 0
-130 46 0
-145 146 0
-90 91 0
-121 122 0
-70 69 0
-186 -15 188 0
-191 197 0
-316 26 0
-299 -23 301 0
-374 71 375 0
-412 58 0
-288 24 289 0
-144 147 0
-112 -59 0
-300 -24 302 0
-407 411 0
-86 88 0
-415 416 0
-332 75 334 0
-12 132 0
-305 306 0
-151 14 153 0
-439 77 0
-250 251 0
19 20 67 68 69 70 0
8 119 0
-65 147 0
-381 -71 0
-249 48 0
-373 70 374 0
-140 67 142 0
-407 36 409 0
-235 239 0
-215 217 0
-423 426 0
-189 -53 191 0
1 79 0
-188 189 0
-335 77 337 0
-102 103 0
-133 134 0
-167 -41 168 0
-58 57 0
31 385 0
33 404 0
-139 66 141 0
-182 55 183 0
-156 159 0
-195 -53 196 0
73 229 0
-396 397 0
-394 -51 0
14 152 0
-264 22 266 0
-286 287 0
-355 -47 357 0
34 405 0
-20 19 0
-165 168 0
-426 38 427 0
14 170 0
-184 -14 186 0
-197 -55 198 0
-274 279 0
-104 6 105 0
-204 61 206 0
-340 -75 0
-368 69 370 0
-169 170 0
-97 -52 0
-334 76 336 0
-328 -63 329 0
-223 18 225 0
-278 281 0
-356 -47 0
-169 14 171 0
-408 409 0
-439 440 0
-287 290 0
-61 126 0
-234 -73 236 0
-259 -20 0
-311 -58 0
-177 180 0
-243 244 0
-385 32 387 0
-419 -36 420 0
-436 -71 0
-8 7 0
-4 108 0
-219 -62 220 0
-179 54 180 0
-361 -50 0
-185 194 0
-337 78 0
-333 76 335 0
-72 71 0
-408 36 0
1 0
45 247 0
-277 -42 0
-177 54 0
-282 22 284 0
37 0
-86 4 87 0
-372 71 0
-352 49 0
-365 366 0
-357 -48 0
-103 106 0
-30 365 0
-199 16 201 0
-281 -44 0
-220 222 0
-69 382 0
-84 3 0
-25 327 0
-162 163 0
-107 108 0
-378 -69 380 0
-214 -18 0
-21 297 0
27 346 0
-32 31 0
-217 -61 218 0
5 0
-12 144 0
-49 -31 0
-111 -6 0
-208 63 210 0
-141 142 0
-213 -17 0
-432 433 0
4 88 0
-254 -46 0
-313 25 315 0
-236 237 0
-424 37 0
24 313 0
1 82 0
-13 184 0
-170 15 172 0
-224 229 0
-189 196 0
-284 23 286 0
-307 -24 308 0
-164 -40 0
-26 339 0
13 169 0
-298 307 0
-405 410 0
-389 -32 391 0
-119 120 0
-120 66 0
-376 -30 378 0
-398 49 0
-20 251 0
-44 43 0
-20 260 0
-105 59 106 0
-228 231 0
-61 219 0
-258 -48 0
-304 -56 306 0
-153 154 0
-280 -43 281 0
-110 -6 112 0
9 0
-18 217 0
-389 390 0
-237 240 0
-303 304 0
-171 15 173 0
-334 335 0
-268 42 0
-90 -2 92 0
-66 149 0
-266 41 268 0
-377 382 0
-144 -65 146 0
-322 327 0
-161 -39 163 0
-154 158 0
-32 394 0
-131 132 0
-56 55 0
-155 40 0
-131 -12 133 0
16 178 0
-428 71 429 0
-346 347 0
-92 -3 94 0
-260 261 0
-187 -16 189 0
-205 206 0
-404 405 0
77 440 0
39 157 0
-193 198 0
-342 344 0
-423 37 425 0
-146 148 0
-409 412 0
-143 144 0
-94 -4 96 0
-68 67 0
-232 233 0
-137 65 139 0
-244 46 246 0
-188 -16 190 0
-147 -66 148 0
-413 414 0
-21 273 0
-292 295 0
-241 242 0
-40 -39 -2 -1 0
-186 187 0
-406 35 408 0
-23 321 0
-15 194 0
-381 384 0
-326 329 0
-255 -47 0
-143 -12 145 0
-124 125 0
-149 -67 150 0
-155 156 0
-246 47 0
-185 -15 187 0
-100 101 0
3 86 0
-181 54 182 0
-299 300 0
-178 181 0
-220 -63 0
-159 42 0
-262 -69 0
-174 53 0
-432 -37 434 0
-243 45 245 0
-276 280 0
-394 395 0
-124 -10 0
-284 285 0
-28 363 0
-380 -70 0
35 410 0
-387 43 0
-51 -11 0
-59 -15 0
-166 -40 167 0
-34 414 0
-235 -74 237 0
15 199 0
38 439 0
-353 50 0
-117 7 0
-6 5 0
-29 376 0
-319 63 320 0
-404 34 406 0
-384 -72 0
-145 -65 0
-365 -59 0
-406 407 0
-82 2 84 0
-233 -73 235 0
-300 308 0
-175 178 0
-5 113 0
-354 355 0
-385 386 0
-17 215 0
-22 298 0
-79 2 0
-209 63 0
-226 230 0
-338 -26 340 0
-59 -11 0
-221 -63 222 0
-290 56 0
-304 310 0
-370 374 0
-263 -70 0
-392 -44 0
29 367 0
-18 17 0
-302 -55 304 0
-66 -65 -8 -7 -6 -5 0
-379 383 0
65 0
-324 328 0
-127 128 0
74 0
-387 388 0
-332 333 0
-363 364 0
-308 -55 309 0
-277 278 0
-183 56 0
-62 221 0
-115 -60 0
-175 16 176 0
-265 270 0
-59 366 0
-366 -60 0
32 386 0
-310 -57 311 0
-134 -46 0
-270 42 271 0
-141 67 0
-218 220 0
-297 -22 299 0
-47 358 0
-51 -21 0
-298 -23 300 0
-2 91 0
-194 -16 195 0
-393 -32 0
-30 29 0
-207 62 209 0
-41 279 0
-139 140 0
-84 85 0
-289 55 290 0
-55 -19 0
-250 -20 252 0
-434 -38 436 0
-203 204 0
-96 -51 0
-234 235 0
-320 64 0
27 28 29 30 59 60 0
-378 379 0
-127 12 129 0
-288 291 0
-108 -5 110 0
-150 -68 0
-117 118 0
-66 65 0
28 347 0
5 116 0
-253 257 0
-379 -70 381 0
-433 -38 435 0
-42 41 0
-316 317 0
-261 262 0
-17 232 0
-81 40 0
-151 152 0
15 175 0
-399 50 0
-96 97 0
-325 326 0
-290 293 0
-356 357 0
-359 361 0
-301 302 0
-180 183 0
-248 47 249 0
2 83 0
-160 161 0
-291 55 292 0
-323 -25 325 0
-33 400 0
-35 430 0
-355 358 0
-11 131 0
73 0
-269 272 0
-122 53 0
-146 -66 0
-68 262 0
-410 36 411 0
-343 -77 0
-93 -4 95 0
-430 431 0
-98 99 0
-78 77 0
-54 53 0
-273 274 0
-3 107 0
-426 428 0
-24 322 0
-331 75 333 0
-1 90 0
-282 283 0
-156 41 0
-227 228 0
-78 -77 -38 -37 0
-377 -69 379 0
-91 -3 93 0
11 127 0
-211 -16 213 0
-422 36 424 0
-371 372 0
38 428 0
-402 403 0
25 318 0
-229 74 230 0
12 128 0
-252 -45 254 0
-53 -11 0
-253 -46 255 0
-397 49 399 0
-254 255 0
-367 30 369 0
-199 200 0
-48 360 0
-63 -19 0
-380 381 0
-348 47 350 0
-184 185 0
-129 130 0
-368 373 0
-313 318 0
-293 296 0
-430 -36 432 0
-324 -26 326 0
-200 17 202 0
-359 -49 0
