p cnf 535 998
-16 15 0
-181 55 0
-232 17 234 0
-266 267 0
-13 206 0
-411 -80 412 0
-397 79 398 0
-63 -33 0
-101 102 0
-90 0
-105 4 107 0
39 472 0
-508 510 0
-196 197 0
-79 -23 0
-296 21 298 0
-336 50 338 0
-371 -28 373 0
-426 427 0
-239 244 0
-250 253 0
-469 38 0
-484 42 486 0
-243 61 244 0
-490 491 0
-143 59 0
-435 436 0
-493 -63 0
-151 9 153 0
-477 -51 479 0
-219 49 221 0
-28 27 0
-4 3 0
-278 279 0
-489 492 0
47 48 0
-137 138 0
-116 -68 0
-345 347 0
-398 80 399 0
-519 82 0
-304 -21 0
-450 -66 0
-9 171 0
-454 458 0
-177 178 0
-373 -29 375 0
-462 463 0
-32 425 0
-4 115 0
-352 353 0
-234 18 236 0
-291 -56 292 0
-172 -83 174 0
-502 503 0
-288 -56 290 0
-447 448 0
35 451 0
-41 492 0
-20 286 0
-392 393 0
-74 315 0
-40 39 0
-240 18 241 0
-111 -3 0
-445 -35 447 0
-65 -27 0
-103 3 105 0
36 452 0
-149 150 0
-238 60 0
-366 30 367 0
-125 126 0
45 528 0
-253 -60 0
4 118 0
-282 56 283 0
-204 89 0
-46 526 0
-87 210 0
-482 41 484 0
-166 -74 0
-408 411 0
-417 89 419 0
-31 407 0
-474 475 0
-523 -46 0
-333 334 0
-364 365 0
-511 -72 0
-26 342 0
-420 90 422 0
-155 10 156 0
-514 45 516 0
-520 -44 522 0
-271 273 0
-514 515 0
-122 77 124 0
-130 132 0
-207 -87 209 0
-382 -71 0
39 480 0
-352 -61 0
-285 -20 287 0
-329 331 0
-52 51 0
-358 29 360 0
-6 0
-510 -71 511 0
-136 88 0
-158 -8 160 0
-216 217 0
-83 329 0
-247 248 0
-460 -36 462 0
-126 129 0
-192 193 0
-248 252 0
-311 312 0
-224 -47 0
-379 -70 0
-369 71 370 0
-486 487 0
-269 -67 271 0
3 117 0
-255 258 0
-321 322 0
-24 23 0
-131 -77 132 0
-463 467 0
-515 46 517 0
-340 52 0
-64 63 0
-457 38 458 0
-491 493 0
-202 88 204 0
-173 174 0
-42 505 0
-180 55 182 0
-204 205 0
-2 0
-184 -53 186 0
-237 60 239 0
-323 324 0
-268 269 0
-525 527 0
-389 397 0
-404 408 0
-485 63 487 0
-160 -9 162 0
-14 194 0
15 230 0
-377 380 0
-138 -87 140 0
11 12 13 14 77 78 79 80 0
-443 444 0
-197 -80 0
-216 47 218 0
-388 389 0
-302 303 0
38 470 0
-36 35 0
-209 211 0
-491 -42 0
-300 65 0
-250 -59 0
-196 -79 0
-76 75 0
-416 32 418 0
-163 -73 0
-32 410 0
-490 -41 0
-43 508 0
-26 350 0
-185 186 0
-99 100 0
-179 54 181 0
-22 311 0
-388 31 390 0
-307 309 0
-236 59 238 0
13 198 0
-272 -68 273 0
-335 336 0
-461 -37 463 0
-69 -21 0
9 155 0
-280 281 0
-333 26 335 0
-99 -53 0
-424 425 0
-464 -38 0
-455 456 0
-303 306 0
-455 38 0
-93 2 95 0
-314 315 0
-48 47 0
-67 272 0
-406 -79 0
-376 -69 0
-16 246 0
-88 87 0
-472 40 474 0
-2 1 0
-452 457 0
-467 -75 468 0
-429 431 0
-474 51 0
-111 112 0
-476 -40 478 0
-289 -56 0
-463 -38 465 0
-389 32 391 0
32 417 0
-393 399 0
-425 428 0
-522 523 0
-118 5 120 0
-189 -55 190 0
-350 351 0
-408 -79 409 0
-323 85 0
-60 59 0
-17 268 0
-55 -15 0
-150 9 152 0
-254 -59 255 0
-34 444 0
-346 -51 0
-409 -80 0
-50 347 0
-16 223 0
-14 13 0
-293 -58 0
-432 34 0
-486 63 0
-123 124 0
-145 -8 147 0
-308 -65 309 0
-182 56 0
-335 49 337 0
-498 499 0
-44 0
-382 385 0
-526 -81 527 0
-362 363 0
-6 138 0
-132 -78 0
-174 -84 0
-128 130 0
-359 30 361 0
-88 212 0
-218 48 220 0
-239 61 0
-59 257 0
-374 -30 376 0
-19 302 0
-26 25 0
23 317 0
-190 -56 0
-84 331 0
-307 -65 0
-245 246 0
-144 60 0
-429 -91 0
-452 37 454 0
-456 459 0
-135 136 0
-53 187 0
-466 -38 467 0
-29 401 0
-260 18 262 0
-330 -85 0
-283 57 284 0
-175 176 0
-198 14 200 0
-208 -87 0
-81 -37 0
-460 461 0
-405 406 0
-253 256 0
-319 320 0
-423 92 0
-499 44 501 0
-503 72 0
-264 265 0
-45 532 0
-40 0
5 133 0
-226 228 0
-246 -17 248 0
-186 -54 0
-318 83 320 0
-342 -49 344 0
-38 37 0
-142 59 144 0
6 134 0
-325 -24 327 0
-62 354 0
-12 184 0
-402 407 0
-527 -82 0
-202 203 0
-47 226 0
-424 -32 426 0
-534 535 0
-98 -53 100 0
-147 148 0
-175 12 177 0
-492 -42 493 0
-267 70 0
-496 497 0
-112 114 0
-406 409 0
-472 473 0
-386 387 0
-300 301 0
-251 -18 252 0
-244 62 0
-270 -67 0
-276 277 0
-10 9 0
-7 145 0
-107 67 0
-169 83 0
-228 -49 229 0
-79 413 0
-54 0
-206 -14 208 0
-74 73 0
-481 41 483 0
-351 -28 0
-458 75 459 0
-50 49 0
-384 -71 385 0
-2 98 0
-272 274 0
-186 188 0
-44 510 0
-183 184 0
-214 215 0
-277 55 279 0
-446 -36 448 0
-40 489 0
-495 -64 0
-209 -88 0
-84 83 0
-168 83 170 0
-368 70 369 0
-437 35 0
-453 454 0
-522 -45 0
-380 -69 381 0
-484 485 0
-530 91 0
85 0
-165 -73 166 0
-128 -6 0
-259 -62 0
17 260 0
-68 274 0
-262 67 264 0
-312 313 0
-343 344 0
-221 50 0
-22 21 0
31 396 0
-35 460 0
-521 -45 523 0
-195 -78 0
40 481 0
-449 -65 0
-524 -46 525 0
-68 0
-86 85 0
-231 17 233 0
-448 -65 450 0
-480 40 482 0
-62 61 0
-50 0
-7 158 0
-213 -90 0
-395 400 0
-194 -77 0
-195 196 0
-256 -61 0
14 199 0
-171 172 0
-104 4 106 0
-177 53 179 0
-302 -20 304 0
-265 69 267 0
37 457 0
-316 -76 0
-367 69 368 0
-492 494 0
-523 525 0
-192 -13 0
-271 -68 0
-298 22 300 0
-329 -84 330 0
-12 192 0
-39 476 0
-123 77 0
11 175 0
-34 33 0
-29 377 0
-86 -85 -38 -37 0
-199 87 201 0
46 529 0
-85 -31 0
-378 381 0
-210 212 0
-96 54 0
-97 98 0
-46 0
-305 307 0
-275 -70 0
-178 54 180 0
-264 68 266 0
-341 -26 343 0
-387 31 389 0
-447 -36 449 0
-496 42 498 0
-157 74 0
-1 97 0
-48 228 0
16 231 0
-23 312 0
-161 -10 163 0
-78 196 0
-97 -2 99 0
-301 66 0
-422 423 0
-508 -44 509 0
-46 45 0
-193 -14 0
2 94 0
-188 190 0
-434 58 0
57 0
-443 -34 445 0
-386 30 388 0
-444 -35 446 0
-331 -85 332 0
-520 521 0
-171 -10 173 0
-415 -82 0
-222 -16 224 0
-427 429 0
33 432 0
-385 -72 0
-109 110 0
-405 -32 0
-117 4 119 0
7 141 0
34 433 0
-403 404 0
-412 -81 0
-470 85 0
-262 263 0
-20 303 0
-507 -44 0
-238 239 0
-183 -12 185 0
8 142 0
-359 367 0
-114 116 0
-394 80 0
-403 -31 405 0
-344 346 0
-521 524 0
-391 79 393 0
-12 11 0
1 93 0
-532 533 0
-411 414 0
-145 146 0
-110 113 0
-439 441 0
-83 -13 0
-70 69 0
-121 122 0
-30 380 0
-516 46 518 0
-92 0
-31 424 0
-254 257 0
-227 -49 0
-470 471 0
-48 -47 0
-380 383 0
-418 89 420 0
-360 361 0
28 357 0
-3 113 0
-184 187 0
-41 504 0
-441 65 442 0
-451 36 453 0
-201 88 203 0
-14 207 0
47 0
-133 134 0
-82 81 0
-58 57 0
-55 291 0
-344 -50 0
-27 371 0
-215 47 217 0
-498 43 500 0
-71 -35 0
-532 -46 534 0
-88 0
-341 342 0
-439 36 440 0
-141 8 143 0
-173 -83 0
-251 254 0
-317 318 0
-20 19 0
19 276 0
-69 383 0
-30 402 0
-419 90 421 0
-465 -75 0
-280 56 0
-357 29 359 0
7 149 0
27 356 0
-161 165 0
-227 229 0
-57 -25 0
36 441 0
-349 -26 0
-169 170 0
-404 -32 406 0
-200 201 0
-89 428 0
-37 466 0
-230 16 232 0
-348 -52 0
-531 92 0
-533 -91 535 0
33 0
-357 366 0
-10 172 0
-63 355 0
-223 226 0
-241 59 242 0
18 261 0
-355 -64 0
1 101 0
-46 533 0
10 168 0
-9 164 0
-353 354 0
-298 299 0
-8 7 0
-185 -53 0
-361 368 0
33 435 0
-121 6 123 0
-372 377 0
-407 410 0
-286 291 0
-4 126 0
-72 71 0
-25 341 0
-170 84 0
-482 483 0
-181 182 0
-129 131 0
-95 96 0
-287 -55 289 0
-393 80 395 0
-362 69 364 0
-459 76 0
-102 3 104 0
-413 -80 414 0
37 0
-350 -27 0
-509 511 0
-420 421 0
-528 46 530 0
24 318 0
-120 6 122 0
-451 452 0
-310 311 0
-224 225 0
-5 129 0
-284 58 0
42 497 0
-306 308 0
-473 51 475 0
-43 520 0
-162 163 0
-42 494 0
-231 240 0
-107 108 0
35 439 0
-263 68 265 0
-137 -6 139 0
-257 -60 258 0
-392 79 394 0
-346 348 0
-32 31 0
-21 306 0
-292 -57 293 0
-4 0
9 167 0
16 215 0
-141 142 0
-432 433 0
-364 70 0
-342 345 0
-256 259 0
-236 237 0
55 282 0
-217 48 219 0
-372 -29 374 0
-223 -47 225 0
-365 370 0
-376 379 0
-337 50 339 0
-146 -59 148 0
-191 -12 0
-205 90 0
-226 -48 227 0
-479 -52 0
-506 507 0
-255 -60 256 0
-73 -11 0
-119 120 0
-488 -40 490 0
41 496 0
-44 43 0
-478 -51 0
-489 -41 491 0
-61 -19 0
-208 209 0
-153 154 0
-306 -22 307 0
-297 22 299 0
-414 -81 415 0
-94 53 96 0
-21 310 0
-90 430 0
-358 359 0
-431 -92 0
-211 -89 0
-125 -4 127 0
15 214 0
-15 222 0
-193 194 0
-412 415 0
-478 479 0
-153 10 0
-320 84 322 0
-101 2 103 0
-381 -70 382 0
-214 16 216 0
-330 332 0
-377 -30 378 0
-266 69 0
-27 351 0
-518 519 0
-127 -5 0
-56 55 0
-200 87 202 0
-5 137 0
-334 49 336 0
-79 197 0
-220 221 0
-235 59 237 0
-150 155 0
-140 -88 0
-428 430 0
-75 316 0
-312 -24 0
25 26 27 28 61 62 63 64 0
-378 -69 379 0
-133 6 135 0
-315 316 0
-401 402 0
-440 65 0
-159 164 0
-260 261 0
-139 -87 0
-273 -69 0
-319 83 321 0
-436 35 438 0
-315 -75 0
-471 86 0
-114 -67 0
-530 531 0
-383 -70 384 0
-409 412 0
-148 -60 0
-395 81 0
-77 -9 0
-143 144 0
-233 241 0
-314 -74 0
-279 283 0
-159 -9 161 0
12 176 0
-68 67 0
-295 21 297 0
-61 353 0
-11 183 0
-287 288 0
-252 255 0
-422 91 0
-232 233 0
-374 378 0
-440 442 0
-483 42 485 0
-129 -6 130 0
-322 85 324 0
-249 -18 0
-49 345 0
-22 308 0
-327 328 0
-462 -37 464 0
-279 56 281 0
-112 -4 0
-345 -50 346 0
-436 439 0
-416 417 0
-381 384 0
-435 34 437 0
-268 -18 270 0
-326 329 0
-535 -92 0
-326 -83 328 0
29 386 0
-534 -91 0
-80 79 0
-529 91 531 0
-110 -3 112 0
-507 509 0
-158 159 0
-154 157 0
-103 104 0
-456 75 0
-509 -71 0
-394 395 0
-164 -10 165 0
-339 340 0
26 334 0
-353 -62 0
-475 52 0
-198 199 0
-163 166 0
-28 372 0
-347 -51 348 0
-6 131 0
-356 28 358 0
-42 0
-95 53 0
-119 5 121 0
-373 374 0
-400 82 0
-220 49 0
-2 110 0
-502 71 0
57 434 0
-23 325 0
-162 -10 0
-225 227 0
-437 438 0
-401 -30 403 0
44 513 0
-361 69 363 0
-281 57 0
-237 243 0
-324 86 0
-18 269 0
-506 -43 0
-92 91 0
-6 5 0
-363 369 0
-513 45 515 0
-375 376 0
-187 -54 188 0
-288 292 0
-351 352 0
-399 81 400 0
-296 297 0
-487 64 0
-338 51 340 0
-11 191 0
-274 -69 275 0
-229 -50 0
-354 355 0
-354 -63 0
-430 -91 431 0
-504 505 0
-59 -11 0
-321 84 323 0
-449 450 0
-480 481 0
-115 -67 116 0
-93 94 0
-17 251 0
37 469 0
-365 71 0
-18 17 0
-33 443 0
43 512 0
25 333 0
-54 189 0
2 102 0
-127 128 0
17 240 0
-39 488 0
-58 -57 -34 -33 0
-428 -90 429 0
-191 192 0
-222 223 0
-305 -22 0
-167 168 0
-518 81 0
-402 -31 404 0
-343 -49 0
-273 275 0
-187 189 0
-152 156 0
-433 57 0
-516 517 0
-52 0
19 294 0
-421 91 423 0
-247 -17 249 0
-225 -48 0
-105 106 0
20 277 0
-442 66 0
-30 29 0
-304 305 0
-299 65 301 0
-67 -11 0
-1 109 0
-249 250 0
20 295 0
-44 521 0
-167 10 169 0
-194 195 0
8 150 0
-139 140 0
-19 285 0
-73 314 0
-36 461 0
-252 -59 253 0
-109 -2 111 0
-289 290 0
-234 235 0
-245 -16 247 0
-179 180 0
-339 51 0
-433 434 0
-464 465 0
21 22 23 24 73 74 75 76 0
-277 282 0
-290 -57 0
-84 0
31 416 0
-370 72 0
-528 529 0
-468 -76 0
-407 -32 408 0
-418 419 0
-106 67 108 0
-360 30 362 0
-117 118 0
-66 65 0
-45 524 0
-258 -61 259 0
-42 41 0
-461 466 0
34 436 0
-363 70 365 0
-524 526 0
-497 43 499 0
-276 20 278 0
-206 207 0
-212 -89 213 0
-453 37 455 0
-151 152 0
-328 330 0
-203 89 205 0
-327 -83 0
-124 78 0
-67 -7 0
-290 293 0
-325 326 0
-270 271 0
-135 87 0
-356 357 0
29 366 0
-40 477 0
-18 254 0
-160 161 0
-233 18 235 0
-500 501 0
-465 468 0
-8 146 0
-379 382 0
-445 446 0
-410 413 0
-476 477 0
-390 391 0
-525 -81 0
-77 195 0
-269 272 0
-149 8 151 0
-303 -21 305 0
-387 396 0
-211 213 0
-332 -86 0
-500 44 502 0
-505 508 0
-425 -89 427 0
-410 -79 411 0
-78 77 0
-375 -30 0
-54 53 0
-100 -54 0
-207 210 0
-28 352 0
-218 219 0
-24 313 0
-438 36 0
-113 -4 114 0
-130 -77 0
-152 10 154 0
-337 338 0
-3 125 0
-390 32 392 0
-134 87 136 0
-242 60 243 0
-313 314 0
-126 -5 128 0
-512 513 0
-328 -84 0
-371 372 0
-235 242 0
-488 489 0
30 387 0
-261 67 263 0
-15 245 0
-188 -55 0
-246 251 0
-210 -88 211 0
-281 284 0
-396 32 397 0
-427 -90 0
-75 -29 0
-286 -55 288 0
-8 159 0
-13 193 0
-294 20 296 0
-113 115 0
-90 89 0
-426 -89 0
40 473 0
-285 286 0
-317 24 319 0
-108 68 0
-230 231 0
-493 495 0
-176 53 178 0
-156 73 157 0
-438 440 0
-311 -23 0
-278 55 280 0
-349 350 0
-294 295 0
-25 349 0
85 471 0
-24 326 0
-501 71 503 0
-504 -42 506 0
-309 -66 0
-512 44 514 0
-469 470 0
-310 -22 0
-454 38 456 0
-517 81 519 0
-248 -18 250 0
-494 -63 495 0
-505 -43 507 0
-154 73 0
-391 398 0
-147 -59 0
-313 -73 0
