p cnf 352 666
-62 174 0
-67 68 0
-16 15 0
-169 -61 171 0
-289 293 0
-266 267 0
-211 212 0
-70 71 0
-7 109 0
-198 35 200 0
-124 10 126 0
-306 307 0
-197 18 199 0
-251 252 0
-24 303 0
-280 -23 282 0
-23 286 0
-345 -32 347 0
-281 -24 283 0
-247 249 0
17 197 0
31 0
2 68 0
-270 274 0
-28 27 0
49 0
-4 3 0
-272 54 273 0
-130 12 131 0
-278 279 0
-102 105 0
-168 169 0
-133 136 0
-82 83 0
-113 114 0
-279 -23 281 0
-318 319 0
-110 119 0
-89 62 0
-177 178 0
51 185 0
28 327 0
-231 -20 233 0
-173 -63 0
-173 175 0
-71 3 73 0
8 0
-19 251 0
-40 39 0
-332 47 0
11 130 0
-169 172 0
35 0
1 67 0
-94 95 0
-341 56 0
-330 331 0
-108 44 0
-306 -64 308 0
-140 -11 142 0
-328 40 0
63 298 0
-313 38 0
-162 61 164 0
-101 41 102 0
-75 77 0
-95 9 97 0
-155 57 0
-72 73 0
-218 45 220 0
-52 51 0
-349 -56 0
3 0
-117 -42 0
-192 193 0
-71 74 0
-18 229 0
-342 343 0
-304 -63 306 0
-114 121 0
31 350 0
-184 53 0
-200 36 0
19 223 0
-189 194 0
-24 23 0
-176 -16 0
-94 8 96 0
-64 63 0
-336 31 0
-228 229 0
-259 260 0
30 335 0
-18 206 0
7 0
-262 22 264 0
-74 4 75 0
-268 269 0
-288 -54 289 0
-203 37 204 0
-213 214 0
-118 -43 0
-316 -37 0
-13 168 0
-48 -47 -30 -29 -28 -27 0
-236 239 0
-302 303 0
-36 35 0
-295 63 297 0
-232 -20 0
-279 286 0
-296 63 0
-26 323 0
-287 291 0
65 352 0
-43 261 0
-131 49 132 0
-298 300 0
-273 55 0
-172 -62 173 0
-125 11 127 0
-154 12 0
-272 276 0
-338 340 0
-15 188 0
-280 281 0
-308 -65 0
-285 -54 0
-254 -58 256 0
11 0
-347 -55 349 0
-204 38 0
-315 -37 317 0
4 76 0
-179 16 181 0
-314 315 0
-48 47 0
-193 196 0
-302 -24 304 0
-142 -12 144 0
1 70 0
-112 120 0
-205 -18 207 0
-2 1 0
-84 -41 0
-166 167 0
-131 134 0
-197 198 0
-111 112 0
-105 43 0
16 180 0
-258 -60 0
27 329 0
-90 -6 92 0
-39 -25 0
-350 351 0
-67 2 0
-167 64 0
-326 327 0
-60 59 0
-202 204 0
-283 288 0
-79 -3 81 0
-9 119 0
-14 13 0
-30 343 0
-209 210 0
-329 28 0
-154 155 0
-68 69 0
-207 -35 209 0
-100 10 101 0
-338 32 339 0
-208 -36 210 0
-226 47 227 0
-51 -13 0
-26 0
-255 -58 257 0
-163 62 165 0
-215 19 217 0
-343 -31 345 0
-249 59 250 0
-181 51 183 0
-47 -25 0
-73 75 0
41 106 0
-233 -45 0
-26 25 0
-116 122 0
-58 -57 -12 -11 0
-10 140 0
-182 186 0
-127 131 0
-245 246 0
-248 250 0
-190 191 0
-189 -51 191 0
-221 222 0
-100 103 0
-191 -52 193 0
-80 81 0
12 155 0
-22 260 0
-318 26 320 0
7 94 0
-111 -9 113 0
-198 201 0
-264 265 0
-171 173 0
-270 24 271 0
-39 -17 0
-38 37 0
-236 -46 0
-47 -21 0
23 294 0
-55 -25 0
-45 159 0
-34 -33 -2 -1 0
-147 148 0
-92 93 0
3 74 0
-217 20 219 0
24 295 0
-238 -46 239 0
-115 -41 117 0
-221 46 0
-277 56 0
-223 20 224 0
-331 332 0
-129 49 0
-10 9 0
-150 -49 151 0
-121 -42 122 0
-50 49 0
-183 184 0
-225 46 226 0
-128 129 0
-109 -8 111 0
-156 58 0
-300 65 301 0
-287 -53 288 0
-297 64 0
-40 -39 -28 -27 0
-312 313 0
-257 258 0
-22 21 0
-128 12 0
-273 277 0
-123 -44 0
-339 341 0
-62 61 0
-59 -23 0
-105 108 0
-323 -59 325 0
33 69 0
-331 30 0
-281 287 0
10 103 0
-324 325 0
-93 -62 0
-234 237 0
-122 -43 123 0
-113 -10 115 0
-34 33 0
-182 52 184 0
-263 23 265 0
-138 52 0
-92 -61 0
-285 289 0
-151 -50 152 0
-6 91 0
-119 -10 120 0
-294 24 296 0
-207 208 0
-326 28 0
57 156 0
-2 79 0
23 270 0
-76 41 77 0
-301 66 0
-336 337 0
-348 -55 0
39 0
-69 34 0
-180 185 0
-16 189 0
-125 130 0
-46 45 0
-351 65 0
57 0
-248 59 0
-201 36 202 0
-292 -55 293 0
32 351 0
5 86 0
-164 165 0
-78 79 0
-109 110 0
-103 41 104 0
-132 135 0
6 87 0
-74 76 0
-348 349 0
-262 263 0
34 0
2 71 0
-200 202 0
-234 -20 235 0
-286 -24 287 0
-12 11 0
-211 -37 0
-145 -49 147 0
-178 -40 0
-266 24 268 0
-145 146 0
-176 177 0
-252 -57 254 0
-90 91 0
-307 -65 309 0
-303 -63 305 0
-216 20 218 0
-177 -39 0
-220 46 222 0
28 330 0
-87 61 89 0
-329 330 0
-239 242 0
-1 78 0
-39 178 0
-118 123 0
-184 187 0
-219 220 0
-251 -20 253 0
29 331 0
-129 132 0
-66 -65 -32 -31 0
-240 -46 241 0
29 0
-268 53 0
-284 -53 0
17 213 0
-246 248 0
-312 37 0
47 0
-157 158 0
-299 65 0
-188 189 0
-58 57 0
-212 -38 0
-195 -53 196 0
-73 4 0
14 161 0
-20 19 0
-305 -64 307 0
-256 -59 258 0
-199 35 0
-161 61 163 0
-116 -42 118 0
-235 -45 236 0
-209 -36 211 0
6 0
-337 339 0
-257 -59 0
36 203 0
-172 174 0
33 0
25 310 0
-247 58 248 0
-321 60 0
-45 -15 0
-314 -26 316 0
-53 -19 0
-110 -9 112 0
-158 -45 0
-243 244 0
-112 -10 114 0
-8 7 0
-222 47 0
-25 314 0
47 333 0
-20 252 0
-141 -11 143 0
-51 194 0
-335 31 337 0
-186 53 187 0
-219 45 221 0
-135 51 0
1 0
-181 182 0
-126 127 0
-216 224 0
-8 110 0
22 263 0
-166 63 0
-242 -48 0
-114 -41 116 0
-82 -4 84 0
-246 58 0
-278 -22 280 0
-91 -61 93 0
-244 247 0
-310 311 0
32 340 0
-157 -14 0
-103 106 0
-255 256 0
-134 137 0
-239 -47 0
-263 270 0
-78 -2 80 0
-271 275 0
-160 14 162 0
-162 163 0
-210 -37 212 0
35 201 0
-149 -12 150 0
8 95 0
-206 -35 208 0
21 22 43 44 0
-32 31 0
5 0
-95 100 0
-141 142 0
-152 -51 153 0
-159 -46 0
-227 48 0
-13 157 0
-333 48 0
-322 323 0
-180 51 182 0
-134 50 135 0
-43 -15 0
15 16 39 40 0
-337 32 0
-80 -3 82 0
13 160 0
19 243 0
21 262 0
-282 -24 284 0
-311 37 313 0
-220 226 0
-25 322 0
-44 43 0
-19 234 0
-168 -14 170 0
-334 30 336 0
-230 -19 232 0
-250 60 0
-14 169 0
-237 240 0
-193 -53 0
-334 335 0
31 338 0
13 14 45 46 0
-170 -61 0
-70 2 72 0
-267 272 0
-299 301 0
-352 66 0
-228 -18 230 0
-56 55 0
-229 -19 231 0
-194 -52 195 0
-142 150 0
-20 237 0
-99 102 0
-21 278 0
-130 133 0
-340 55 341 0
-335 338 0
30 332 0
-283 -53 285 0
-346 347 0
-260 261 0
-102 42 0
4 0
-205 206 0
39 328 0
18 214 0
-137 51 138 0
-201 203 0
-274 53 275 0
-143 144 0
-148 -51 0
-88 89 0
-259 -22 0
-232 233 0
-188 -16 190 0
-327 328 0
-171 -62 0
-15 176 0
-217 218 0
-290 -53 291 0
-214 223 0
-229 234 0
-295 298 0
-143 -12 145 0
-124 125 0
-155 156 0
10 125 0
-269 54 0
-233 236 0
-132 50 0
-146 152 0
-9 139 0
-293 -56 0
-104 42 105 0
-158 159 0
-175 -64 0
-265 271 0
-26 315 0
-308 309 0
-75 41 0
-253 254 0
-120 -41 121 0
-284 285 0
-21 259 0
-140 149 0
27 326 0
-107 43 108 0
-6 5 0
-276 55 277 0
-88 61 0
-170 171 0
-135 138 0
-183 52 0
-43 -17 0
-115 116 0
-288 292 0
-126 11 128 0
-244 57 246 0
-106 42 107 0
-320 321 0
-174 -63 175 0
-351 352 0
26 311 0
-296 297 0
-61 172 0
-213 18 215 0
-185 52 186 0
-218 225 0
-264 23 266 0
-289 -55 0
9 124 0
-291 -54 292 0
-23 302 0
-330 29 0
-14 158 0
-18 17 0
-190 -51 192 0
65 0
-269 273 0
-97 10 99 0
-332 333 0
-5 90 0
-101 104 0
-327 39 0
-214 19 216 0
-144 151 0
-265 24 267 0
-97 101 0
-17 228 0
-243 20 245 0
-30 29 0
-304 305 0
-81 -4 83 0
-187 54 0
-139 140 0
-104 107 0
-84 85 0
-133 49 134 0
24 274 0
-98 10 0
-344 345 0
-325 -60 0
-179 180 0
-85 -42 0
-222 227 0
-99 41 0
-86 6 88 0
-127 12 129 0
-324 -59 0
-350 32 0
-164 62 166 0
26 319 0
-344 -31 346 0
-22 279 0
-86 87 0
-117 118 0
-66 65 0
-17 205 0
-319 59 321 0
-42 41 0
-316 317 0
-237 -45 238 0
-96 97 0
-235 238 0
-298 64 299 0
-215 216 0
-160 161 0
-267 53 269 0
18 198 0
12 133 0
-148 153 0
58 249 0
-68 33 0
-261 -44 0
-297 299 0
-320 59 0
-144 -49 146 0
-11 149 0
-339 55 0
-346 -32 348 0
-96 9 98 0
-98 99 0
-77 42 0
-54 53 0
-260 -43 0
9 100 0
49 136 0
-62 0
-192 -52 0
29 334 0
-282 283 0
-342 -30 344 0
-139 -10 141 0
-153 -52 0
15 179 0
-322 -26 324 0
-136 50 137 0
-317 -38 0
-241 -47 242 0
64 300 0
25 318 0
50 0
-271 53 272 0
11 154 0
-146 -50 148 0
-245 57 0
-202 37 0
-224 45 225 0
-45 240 0
-191 195 0
-253 -57 255 0
-72 3 0
-196 -54 0
-199 200 0
-230 231 0
-24 290 0
-165 63 167 0
-286 290 0
-310 26 312 0
-231 235 0
20 244 0
-294 295 0
-275 54 276 0
-309 -66 0
27 0
-238 241 0
-16 177 0
-57 -13 0
36 0
57 247 0
-29 342 0
-83 -41 85 0
-147 -50 0
