p cnf 297 579
-267 43 0
63 0
-16 15 0
-144 12 146 0
-201 -45 202 0
-203 207 0
-40 -39 -18 -17 0
-252 -26 253 0
-266 267 0
-78 49 0
-211 212 0
-22 237 0
-70 71 0
-101 102 0
-190 47 191 0
-204 -45 205 0
-196 197 0
-120 -59 122 0
14 177 0
-259 28 0
-93 60 0
-178 15 180 0
-12 161 0
11 126 0
-186 46 187 0
31 0
-28 27 0
11 144 0
-4 3 0
-223 224 0
-213 18 0
-137 138 0
12 127 0
-130 34 0
-160 -12 162 0
-82 83 0
-13 192 0
-117 62 0
-271 -28 273 0
-145 152 0
-149 41 151 0
-111 59 113 0
-272 -29 274 0
-49 107 0
-122 123 0
-122 -60 124 0
-181 45 183 0
-102 -53 104 0
-165 170 0
8 98 0
-138 142 0
-142 -35 143 0
-168 -14 169 0
16 209 0
-286 32 287 0
-40 39 0
-69 3 0
17 0
35 0
-276 -43 0
-180 181 0
-147 14 149 0
-94 95 0
-244 245 0
-275 276 0
-264 29 266 0
39 215 0
-263 268 0
-52 51 0
-153 157 0
-184 188 0
3 0
-216 217 0
-129 133 0
-14 172 0
-192 193 0
-106 107 0
-134 36 0
-140 -35 0
-146 13 148 0
21 0
-173 -42 174 0
-256 257 0
-146 147 0
-274 -30 276 0
-7 94 0
-24 23 0
-252 254 0
-76 80 0
13 176 0
-3 82 0
-64 63 0
-155 43 0
-180 16 182 0
-259 260 0
-126 12 128 0
-118 119 0
-291 -31 293 0
60 116 0
-195 -16 197 0
-97 8 99 0
19 20 55 56 57 58 0
-229 22 0
-213 214 0
25 0
-13 168 0
-267 270 0
-36 35 0
26 257 0
-157 42 158 0
17 18 19 20 47 48 0
-65 66 0
29 268 0
-257 63 0
-174 -43 175 0
-240 241 0
-23 248 0
-271 272 0
-197 -45 199 0
-99 100 0
-130 131 0
-261 38 0
-19 218 0
-141 -34 142 0
-75 76 0
-154 42 155 0
-280 281 0
-8 102 0
-247 58 0
-280 30 282 0
-224 -57 0
-179 16 181 0
-67 34 0
-127 132 0
-48 47 0
-155 159 0
-289 -30 291 0
-28 272 0
-156 41 157 0
-2 1 0
-284 32 0
-166 167 0
-131 134 0
-188 45 189 0
-198 -45 0
-209 53 0
-83 -5 85 0
-89 -49 90 0
-202 -46 203 0
-212 56 0
25 256 0
-71 41 0
-60 59 0
4 71 0
-193 200 0
1 65 0
-164 -14 166 0
-14 13 0
-98 53 100 0
-170 174 0
-192 -14 194 0
-201 205 0
-178 179 0
-193 -15 195 0
-209 210 0
-68 69 0
13 152 0
-225 -58 0
-161 -13 163 0
-88 -6 89 0
-185 45 186 0
-29 289 0
-123 -61 125 0
-26 25 0
-281 31 283 0
-147 153 0
-9 105 0
3 70 0
-278 -43 279 0
-221 222 0
-135 136 0
-234 23 0
-288 52 0
-159 44 0
-262 28 264 0
59 114 0
-119 -59 121 0
-175 -44 0
-206 -47 207 0
53 210 0
-264 265 0
-297 -52 0
-279 -44 0
-228 38 0
-208 16 0
-38 -37 -36 -35 0
-38 37 0
-34 -33 -2 -1 0
-16 204 0
-294 -51 0
-92 93 0
-70 4 0
-9 118 0
-242 243 0
-5 88 0
-99 53 0
-138 -34 140 0
-10 9 0
-218 -20 0
-205 -46 206 0
-51 -23 0
-195 201 0
-292 296 0
-50 49 0
-127 33 129 0
-56 -55 -54 -53 -16 -15 0
-151 155 0
-214 215 0
-38 -37 -28 -27 0
-128 129 0
-73 74 0
-136 -33 138 0
-236 -22 238 0
12 145 0
28 260 0
-245 57 247 0
-257 258 0
-22 21 0
-244 26 246 0
-94 -8 0
-187 191 0
-62 61 0
-253 255 0
-51 -19 0
31 32 0
-226 227 0
-91 6 0
-31 295 0
7 8 45 46 0
-187 47 0
-112 59 0
-214 39 0
-132 34 133 0
53 0
62 0
-129 34 131 0
3 73 0
-177 15 179 0
-34 33 0
27 259 0
-268 30 269 0
-207 -48 0
-199 203 0
5 91 0
-143 -36 0
-66 67 0
-97 98 0
-290 -31 292 0
-17 216 0
6 92 0
-74 5 76 0
35 226 0
-290 295 0
39 0
-149 154 0
-270 44 0
36 227 0
-47 220 0
-46 45 0
-139 -34 0
-73 4 75 0
-135 -12 137 0
-11 160 0
21 229 0
-164 165 0
-109 -52 0
-210 54 0
-223 -56 0
-277 -30 278 0
-262 263 0
-293 294 0
-238 239 0
-10 106 0
-108 -51 0
-114 116 0
-150 41 0
-281 286 0
-222 -55 0
61 0
-12 11 0
-168 172 0
-56 224 0
-104 -54 0
-176 177 0
-53 -9 0
-75 5 77 0
30 281 0
-294 297 0
-219 220 0
-250 251 0
-116 61 117 0
-40 -39 -22 -21 0
55 212 0
-81 50 0
2 66 0
-49 -7 0
17 213 0
-253 -57 0
-58 57 0
-110 10 112 0
-60 -59 -6 -5 0
-152 14 153 0
27 262 0
-42 -41 -4 -3 -2 -1 0
-76 6 78 0
-230 39 0
-20 19 0
-191 48 0
-12 136 0
-216 -18 0
-226 36 0
15 0
-131 35 0
-14 193 0
-221 -20 0
33 0
-79 6 80 0
-68 2 0
-148 14 150 0
-295 -32 296 0
-124 -61 0
-197 202 0
54 211 0
39 231 0
-8 7 0
-239 -24 0
14 156 0
-84 -5 86 0
1 0
-95 96 0
-126 127 0
-71 72 0
37 261 0
37 0
-256 26 0
-82 -4 84 0
-224 225 0
-77 6 0
-7 101 0
-66 33 0
-177 184 0
29 280 0
-185 189 0
-251 253 0
-162 163 0
16 188 0
-19 221 0
-107 108 0
-90 -50 0
-32 31 0
-15 200 0
5 0
-181 186 0
-237 -23 239 0
-283 287 0
-50 108 0
-269 43 270 0
-176 14 178 0
-296 -51 297 0
-291 292 0
-87 -49 0
-236 237 0
-121 -60 123 0
-215 40 0
-251 -26 0
-220 -48 0
-293 -32 0
-287 51 288 0
-150 151 0
-44 43 0
-217 -19 0
-171 -43 0
-208 209 0
-87 90 0
-83 88 0
-283 32 285 0
-260 37 0
-18 217 0
-107 -50 0
4 74 0
-248 249 0
-263 29 265 0
-57 225 0
1 68 0
-246 57 0
-125 -62 0
-163 -14 165 0
-106 -49 0
-258 64 0
-24 249 0
-154 158 0
-20 219 0
-56 55 0
-118 -10 120 0
22 230 0
-249 252 0
37 228 0
-229 230 0
-260 261 0
-169 -41 170 0
-8 95 0
-137 -33 139 0
-113 60 0
18 214 0
33 132 0
-115 117 0
-248 -24 250 0
-112 113 0
-151 42 0
-95 -45 0
-285 51 0
-182 45 0
63 258 0
-232 233 0
-111 114 0
7 97 0
-72 42 0
-51 -15 0
-103 -53 0
-165 -41 167 0
-243 26 245 0
-114 60 115 0
-217 218 0
-19 0
-202 206 0
-124 125 0
-69 70 0
-43 -21 0
-292 -32 294 0
-103 104 0
-167 -42 0
-4 83 0
-233 23 235 0
-284 285 0
-198 199 0
-133 35 134 0
41 72 0
-231 40 0
-170 -42 171 0
-272 277 0
-24 0
-183 187 0
-33 141 0
-275 -30 0
-232 22 234 0
15 208 0
-235 24 0
-227 37 0
10 111 0
-6 5 0
-86 -6 0
-105 -10 0
28 263 0
-43 -17 0
-285 288 0
-210 211 0
-21 236 0
-80 49 81 0
-20 222 0
-171 175 0
-85 89 0
-29 277 0
22 233 0
-92 59 0
-18 17 0
-10 119 0
-282 31 284 0
-203 -47 0
-30 290 0
-136 141 0
-182 183 0
-96 -46 0
-179 185 0
-25 252 0
-222 223 0
59 93 0
-85 -6 87 0
-276 279 0
-152 156 0
9 110 0
-105 106 0
-30 29 0
33 67 0
-186 190 0
31 286 0
-240 24 242 0
-194 195 0
-115 61 0
-153 41 154 0
-139 140 0
-84 85 0
-194 -15 196 0
-289 290 0
-234 235 0
-148 149 0
-51 109 0
-199 -46 0
21 232 0
-162 -13 164 0
-172 -41 173 0
-32 -31 0
-86 87 0
-42 41 0
-163 169 0
-128 33 130 0
-238 -23 0
-74 79 0
-140 143 0
9 10 49 50 51 52 0
-120 121 0
-196 -16 198 0
-64 -63 -26 -25 0
15 184 0
-100 54 0
-255 -58 0
-246 247 0
-160 161 0
55 0
-65 2 0
-55 223 0
64 0
-266 30 0
-183 46 0
-254 -57 255 0
-265 269 0
-158 43 159 0
-54 53 0
-273 274 0
-218 219 0
-274 278 0
-77 78 0
-108 109 0
-282 283 0
-227 228 0
-200 -16 201 0
-241 25 243 0
2 69 0
-27 271 0
41 0
-26 254 0
59 0
-101 -8 103 0
-113 115 0
-11 135 0
-110 111 0
-184 16 185 0
-145 13 147 0
5 79 0
-167 171 0
-166 -41 0
-78 81 0
-144 145 0
-219 -47 0
-211 55 0
-230 231 0
-250 -25 0
-189 46 190 0
-242 25 244 0
23 240 0
-45 96 0
-161 168 0
24 241 0
27 0
-169 173 0
-200 204 0
-265 30 267 0
-273 -29 275 0
-91 92 0
-249 -25 251 0
