p cnf 460 855
-16 15 0
-234 238 0
-370 61 372 0
-151 -10 153 0
-324 42 326 0
-409 -32 0
-283 22 285 0
-397 -58 0
-238 51 239 0
-240 53 241 0
-413 -66 0
-105 4 107 0
-196 197 0
-271 -47 273 0
-395 396 0
-360 363 0
-426 427 0
-181 -13 183 0
-219 222 0
-79 2 81 0
-458 38 0
-99 -4 101 0
-423 35 425 0
-49 -23 0
-174 68 175 0
-241 54 0
-375 63 0
-435 436 0
-223 -41 0
-426 36 0
-79 80 0
-28 27 0
-454 -63 0
-36 450 0
-4 3 0
-423 428 0
-273 -48 275 0
-439 -56 0
-264 48 266 0
-137 138 0
-168 169 0
18 259 0
-113 114 0
-329 44 0
-263 264 0
-427 430 0
-377 -26 379 0
-436 -55 0
-317 320 0
-165 170 0
-450 455 0
-61 -11 0
-351 54 352 0
-197 74 0
-40 39 0
17 0
16 227 0
-192 -69 193 0
-169 172 0
27 385 0
-149 150 0
44 0
-125 126 0
-97 -3 99 0
-330 331 0
-330 -24 332 0
-244 245 0
74 200 0
-4 110 0
7 119 0
-459 460 0
26 370 0
-21 295 0
-52 51 0
-347 54 0
-216 217 0
8 120 0
-161 162 0
-87 2 89 0
-210 16 212 0
-364 -54 365 0
-57 -19 0
15 226 0
-82 46 0
-390 -49 392 0
-379 -61 0
-10 160 0
-385 28 387 0
-400 401 0
-365 368 0
-431 432 0
-102 -4 103 0
-345 346 0
-321 322 0
-24 23 0
-455 -38 456 0
-197 199 0
-414 32 416 0
-243 250 0
-254 -51 255 0
-201 76 0
-64 63 0
-306 310 0
-251 255 0
13 194 0
-234 18 235 0
-307 76 0
-228 229 0
-28 394 0
-259 260 0
-412 -65 413 0
-87 88 0
-204 205 0
-280 21 282 0
-315 319 0
-295 297 0
-211 39 213 0
-291 -20 293 0
-381 383 0
-448 64 0
-323 324 0
-368 -56 0
-366 -54 367 0
-391 -49 0
-182 -14 184 0
-216 41 0
-311 78 0
-62 383 0
-65 -19 0
-14 203 0
9 10 11 12 57 58 0
-106 73 108 0
-36 35 0
-131 60 133 0
-328 43 329 0
-365 -55 0
-154 156 0
73 198 0
-313 -75 315 0
-39 115 0
-76 75 0
-293 -21 0
-298 300 0
-332 -41 334 0
-333 -42 335 0
-32 419 0
-185 186 0
-380 -62 0
-144 45 146 0
7 127 0
-61 -17 0
-47 -15 0
-424 425 0
-453 -38 0
-369 370 0
-283 284 0
-126 -52 0
-314 315 0
29 398 0
-48 47 0
-16 219 0
-221 223 0
-251 -51 252 0
-125 -51 0
-408 -31 0
-120 51 122 0
-2 1 0
-384 -64 0
-9 151 0
-422 34 424 0
-173 67 174 0
-166 13 168 0
-166 167 0
-111 112 0
-318 -76 319 0
-107 73 0
-22 297 0
-356 -25 358 0
-263 47 265 0
-341 25 343 0
-100 -4 0
-304 309 0
-75 318 0
35 440 0
-80 45 82 0
-17 250 0
-331 -41 333 0
-174 177 0
-206 -74 208 0
-60 59 0
-345 53 347 0
-175 69 0
-276 -48 277 0
-146 46 148 0
-245 251 0
-323 41 325 0
-14 13 0
-407 -31 409 0
-358 -26 0
3 93 0
-179 -12 181 0
-230 18 232 0
-29 406 0
-123 124 0
-444 38 0
-5 116 0
5 6 39 40 0
13 170 0
-442 37 444 0
-393 394 0
-83 -2 85 0
-95 60 0
-300 -71 0
-307 308 0
-259 65 0
-392 -50 0
-8 0
-133 61 0
-193 -70 0
-45 155 0
-319 -77 320 0
-237 241 0
-284 69 286 0
-26 25 0
-401 32 403 0
-343 26 345 0
-299 -70 300 0
-421 -78 0
-287 70 289 0
-135 136 0
-295 -22 296 0
-93 4 94 0
-33 431 0
-243 -17 245 0
-349 26 350 0
-67 118 0
-452 456 0
-357 -26 359 0
-308 311 0
-415 77 417 0
-326 43 0
-51 -9 0
-140 142 0
20 280 0
-296 -69 0
37 458 0
-189 -14 190 0
-249 253 0
-38 37 0
-431 -34 433 0
-290 72 0
-136 139 0
-202 203 0
15 210 0
-116 117 0
-312 -22 314 0
-147 148 0
-410 412 0
-418 -32 420 0
-182 190 0
-262 47 264 0
38 459 0
-122 52 0
25 349 0
-242 243 0
-110 -73 112 0
-137 -59 0
-445 63 0
-10 9 0
-399 31 401 0
-457 -64 0
-74 73 0
14 195 0
-382 384 0
-40 224 0
-229 18 231 0
-383 -63 384 0
-50 49 0
75 309 0
28 386 0
-183 184 0
-214 215 0
-159 160 0
-376 64 0
-229 235 0
-118 -68 0
-198 74 199 0
-411 -65 0
-371 61 373 0
-453 454 0
71 460 0
-398 399 0
-363 366 0
-312 313 0
-184 -67 186 0
-343 344 0
-11 161 0
-63 -29 0
-22 21 0
-200 75 201 0
31 414 0
-441 446 0
-11 179 0
-331 336 0
-149 47 0
-115 -40 0
-167 14 169 0
-190 -67 191 0
-273 277 0
-6 114 0
-62 61 0
-198 200 0
-177 69 178 0
-247 -51 249 0
-2 84 0
-226 227 0
-85 86 0
-435 -36 0
-59 -5 0
-138 -60 0
-316 -76 0
-379 380 0
30 399 0
-327 42 328 0
-35 437 0
71 0
-34 33 0
-361 -53 362 0
-378 381 0
-419 -77 421 0
-233 52 0
-172 68 0
-296 298 0
-7 135 0
-437 -36 438 0
-142 -62 0
-320 -78 0
-26 378 0
-46 0
-389 -28 391 0
-340 349 0
-430 56 0
-2 97 0
-252 -52 253 0
-153 -45 0
-391 392 0
-422 423 0
-438 -55 439 0
-86 -46 0
-281 282 0
-19 291 0
-268 49 269 0
-258 18 0
-46 45 0
-127 8 129 0
-157 -47 158 0
-344 351 0
-445 448 0
-403 65 405 0
-355 360 0
-85 -45 0
-170 14 171 0
-69 299 0
5 6 67 68 0
-454 457 0
-279 20 281 0
-158 -48 0
-222 224 0
-303 22 305 0
-191 -68 192 0
-164 165 0
-109 110 0
-267 48 268 0
-46 157 0
-3 109 0
-97 102 0
-449 -36 451 0
-434 438 0
-1 83 0
-458 459 0
-180 -13 182 0
-247 252 0
-386 49 388 0
-293 294 0
-172 175 0
-373 62 375 0
34 0
-217 42 0
43 0
2 80 0
-180 189 0
-128 59 130 0
-12 11 0
-45 -5 0
-145 146 0
-121 122 0
-70 69 0
-154 -46 0
-88 3 90 0
-30 407 0
-382 -63 0
-20 271 0
-274 275 0
-305 306 0
-344 53 346 0
-317 -77 0
-21 312 0
-207 -75 209 0
-25 360 0
-369 26 371 0
-374 63 376 0
-257 -54 0
8 128 0
-262 267 0
-227 234 0
-277 -49 278 0
-348 353 0
-405 66 0
-235 239 0
-260 66 0
-304 75 306 0
-15 242 0
-134 62 0
1 79 0
-133 134 0
-58 57 0
-266 269 0
-31 410 0
-244 -17 246 0
-333 337 0
33 422 0
-432 -35 434 0
-168 14 0
-361 364 0
-396 397 0
-130 60 132 0
-341 342 0
-271 276 0
-108 74 0
-27 389 0
-169 67 0
-20 19 0
-26 363 0
34 423 0
-138 140 0
-184 191 0
-417 78 0
-427 55 0
-194 14 196 0
-124 -51 126 0
-81 45 0
-57 -25 0
-420 -77 0
36 441 0
33 0
-8 124 0
-114 115 0
-196 73 0
-281 21 283 0
-212 39 214 0
-176 68 177 0
-237 53 0
-188 193 0
-253 -53 0
-434 -36 436 0
-411 413 0
-53 -19 0
-408 409 0
-425 36 427 0
-398 30 400 0
-214 40 216 0
-443 38 445 0
-212 213 0
-301 -71 302 0
-8 7 0
-442 443 0
-27 393 0
-228 17 230 0
-407 410 0
-378 -61 380 0
-231 236 0
-314 -75 316 0
-72 71 0
-380 382 0
-165 13 167 0
-294 296 0
-141 -61 142 0
16 211 0
-181 182 0
-336 -42 337 0
-297 -69 298 0
-340 25 342 0
-282 22 284 0
37 0
-202 -14 204 0
-204 -73 206 0
-342 350 0
-357 361 0
18 238 0
-443 447 0
-420 421 0
-451 452 0
27 28 29 30 57 58 0
1 87 0
-13 189 0
-47 276 0
-279 280 0
-275 278 0
-342 26 344 0
-185 -67 187 0
-9 159 0
-70 301 0
-322 41 324 0
-255 -52 256 0
-364 367 0
-346 54 348 0
-348 55 0
-99 103 0
-162 163 0
-101 -59 0
-107 108 0
-129 59 131 0
-203 -73 205 0
-117 -67 0
21 303 0
-306 76 308 0
-83 84 0
-32 31 0
-395 -30 0
-459 71 0
-15 218 0
-227 17 229 0
23 321 0
-23 354 0
-456 -63 457 0
-66 -65 -18 -17 0
-57 -17 0
-139 -60 140 0
-335 -43 0
-377 378 0
-446 38 447 0
-291 292 0
-41 336 0
23 339 0
-170 173 0
4 106 0
-305 75 307 0
-236 52 237 0
24 322 0
-334 -42 0
-114 -39 0
24 340 0
-252 256 0
-265 48 0
-220 -39 0
-215 41 217 0
-308 77 0
-302 -72 0
-61 381 0
-119 120 0
-424 35 426 0
-387 49 0
-44 43 0
-261 20 263 0
-355 -25 357 0
-325 42 0
-61 -19 0
-208 209 0
-173 176 0
-178 70 0
-153 154 0
-224 -41 225 0
-346 352 0
-358 359 0
-389 390 0
-303 304 0
-103 -59 104 0
-205 -74 207 0
-334 335 0
-248 249 0
-338 -44 0
-353 56 0
-161 -12 0
-432 437 0
-155 157 0
-322 327 0
10 144 0
-233 237 0
-299 301 0
-350 53 351 0
3 105 0
-148 47 150 0
-450 -37 452 0
-160 -11 0
-402 32 404 0
-59 139 0
-131 132 0
-56 55 0
-32 412 0
32 415 0
-220 221 0
-32 0
-22 313 0
-186 192 0
-335 338 0
-360 -26 361 0
-5 0
-288 71 290 0
-98 -3 100 0
-140 -61 0
-218 -16 220 0
-381 -62 382 0
-221 -40 0
-451 -37 453 0
-404 405 0
-321 24 323 0
-37 455 0
-452 -38 454 0
-222 -40 223 0
-10 152 0
-269 50 0
-444 445 0
-29 395 0
-143 144 0
-68 67 0
-287 288 0
-208 -75 0
-232 233 0
-429 55 430 0
-264 268 0
-163 -58 0
-225 -42 0
-292 295 0
-272 273 0
-372 62 374 0
9 143 0
-152 -45 154 0
-436 439 0
-416 417 0
-23 330 0
-326 329 0
-155 -46 156 0
-121 51 0
-100 101 0
-236 240 0
-428 36 429 0
-123 -8 125 0
-16 243 0
-88 93 0
-116 -6 0
-250 -18 251 0
-339 24 341 0
-367 -55 368 0
-339 340 0
-394 395 0
-441 37 443 0
-136 -59 138 0
-278 -50 0
-183 -14 185 0
-362 365 0
-28 390 0
-373 374 0
35 428 0
-139 141 0
-55 -27 0
-363 -53 364 0
-34 432 0
-209 -76 0
-81 82 0
-6 5 0
-289 71 0
-109 -4 111 0
-315 -76 317 0
47 267 0
-60 141 0
-96 -2 98 0
-245 -18 247 0
-274 -48 0
-375 376 0
-409 411 0
-406 407 0
-195 73 197 0
-265 266 0
-337 -43 338 0
-145 45 147 0
-440 36 442 0
-210 211 0
-156 -47 0
-5 113 0
-175 178 0
-226 16 228 0
-440 441 0
-6 117 0
-164 12 166 0
-354 355 0
-272 -47 274 0
-385 386 0
-309 76 310 0
-1 96 0
-235 51 236 0
-449 450 0
-460 72 0
-425 429 0
-359 362 0
-24 355 0
-92 59 0
-352 55 353 0
-18 17 0
-256 -53 257 0
-285 69 287 0
65 0
-324 328 0
-127 128 0
-92 95 0
-292 -21 294 0
-387 388 0
-332 333 0
-35 449 0
17 258 0
-266 49 0
-294 -22 0
25 369 0
-406 -30 408 0
-101 104 0
-231 51 233 0
-310 77 311 0
-91 4 0
-105 106 0
-362 -54 0
-30 29 0
-147 46 149 0
-275 -49 0
37 446 0
-72 -71 -38 -37 0
-194 195 0
41 327 0
2 88 0
-258 259 0
22 304 0
-289 290 0
11 164 0
-447 63 448 0
-179 180 0
-143 10 145 0
-433 434 0
12 165 0
-71 -31 0
-199 201 0
-400 31 402 0
-396 -57 0
-135 -8 137 0
-418 419 0
-242 -16 244 0
-394 -29 0
-117 118 0
-66 65 0
-57 0
-253 257 0
-232 51 0
-42 41 0
-316 317 0
-84 -45 86 0
-195 198 0
-261 262 0
-89 3 91 0
-171 174 0
-206 207 0
-393 -28 0
-151 152 0
-171 67 172 0
-57 397 0
-25 377 0
-96 97 0
-199 75 0
-325 326 0
-356 357 0
-410 -32 411 0
-270 271 0
-39 222 0
-286 70 288 0
-246 247 0
-18 254 0
-160 161 0
-104 -60 0
-297 299 0
-90 94 0
-156 158 0
-31 418 0
-98 99 0
-112 -74 0
-404 65 0
-78 77 0
-187 -68 0
-249 -52 0
-300 302 0
-54 53 0
-62 0
-187 188 0
-152 155 0
-218 219 0
-111 -73 0
-162 -57 0
-90 4 92 0
-113 -6 0
-213 40 215 0
-248 -51 0
-298 -70 0
-24 331 0
-250 254 0
-433 -35 435 0
-20 292 0
-57 163 0
-246 -18 248 0
-12 162 0
-119 8 121 0
-359 -53 0
-371 372 0
-402 403 0
-12 180 0
-347 348 0
-150 48 0
-159 -10 0
-223 225 0
17 234 0
-94 59 95 0
-13 202 0
-416 77 0
-354 -24 356 0
-167 171 0
-285 286 0
-7 123 0
19 261 0
-230 231 0
-30 396 0
-219 -39 221 0
-239 52 240 0
-270 -20 272 0
-89 90 0
19 279 0
14 173 0
-3 102 0
67 176 0
-388 50 0
-132 61 134 0
20 262 0
-129 130 0
-313 318 0
-414 415 0
-19 270 0
-53 366 0
-188 -69 0
65 260 0
-8 136 0
-91 92 0
-186 -68 188 0
