p cnf 270 496
-16 15 0
-201 -34 202 0
-40 -39 -18 -17 0
-13 197 0
-176 179 0
-112 32 114 0
-3 70 0
-79 -41 0
-177 38 178 0
-166 -28 0
-20 255 0
-204 -36 0
-92 25 0
-219 222 0
-250 253 0
-225 26 0
-79 80 0
-28 27 0
-4 3 0
-223 224 0
-137 138 0
-119 34 0
-82 83 0
-111 31 113 0
-113 114 0
-156 28 158 0
-170 -30 0
-125 -31 0
-26 -25 -16 -15 0
-233 30 0
-205 14 207 0
-263 264 0
-122 123 0
-263 22 265 0
-87 8 89 0
-176 39 0
-138 142 0
-258 -22 0
-40 39 0
17 0
16 227 0
-123 -10 125 0
-251 22 252 0
-180 181 0
-66 -3 68 0
-189 190 0
-37 86 0
-211 44 212 0
-6 82 0
-2 52 0
-254 -20 256 0
-269 -45 0
-208 212 0
-249 22 0
-216 217 0
-247 248 0
-126 129 0
-34 203 0
-229 18 0
-248 252 0
-51 52 0
15 226 0
-8 121 0
-153 12 155 0
-15 234 0
-256 257 0
-146 147 0
-145 -41 147 0
-24 23 0
-139 42 0
-167 -29 0
-103 -25 104 0
-53 54 0
7 105 0
-239 -29 241 0
-165 169 0
-231 233 0
8 88 0
-228 229 0
-173 174 0
-132 -32 133 0
-87 88 0
8 106 0
-143 44 0
-115 10 116 0
-141 42 142 0
25 0
-172 37 174 0
-31 132 0
-186 -38 187 0
-36 35 0
-191 33 193 0
-240 241 0
-189 14 191 0
-21 267 0
-63 32 0
-127 -31 128 0
13 189 0
-75 76 0
-217 221 0
-169 -29 170 0
22 264 0
-2 1 0
-240 -29 0
-181 -37 183 0
-265 45 0
-65 70 0
-131 134 0
-166 167 0
-197 198 0
-111 112 0
-236 -17 238 0
-246 21 248 0
-155 27 157 0
-197 -14 199 0
-77 -4 79 0
-107 9 109 0
-193 34 195 0
-8 97 0
-57 3 59 0
-202 204 0
1 47 0
-10 145 0
-27 83 0
-14 13 0
18 243 0
-209 210 0
-199 -33 0
-68 69 0
-90 24 92 0
21 263 0
-56 61 0
-131 -33 0
-231 29 0
-206 211 0
-69 -31 0
-194 35 196 0
-146 -41 148 0
-89 23 91 0
-26 25 0
-245 246 0
-78 -41 80 0
-69 72 0
-135 136 0
-206 43 208 0
-49 50 0
-213 46 0
-52 -23 54 0
-5 84 0
-76 42 0
-11 162 0
-175 176 0
-11 180 0
-134 -34 0
-198 201 0
-114 33 0
-110 31 112 0
-162 -12 164 0
-163 168 0
-138 42 140 0
-60 31 0
-38 37 0
-229 231 0
-54 -24 0
-242 243 0
-140 43 0
-230 18 231 0
5 6 27 28 0
-210 213 0
-10 9 0
-216 -43 218 0
-108 10 110 0
-98 -23 100 0
9 135 0
-214 215 0
-73 74 0
11 153 0
17 242 0
11 171 0
12 154 0
-22 21 0
-167 170 0
12 172 0
-22 268 0
-21 260 0
14 190 0
-195 196 0
-226 227 0
-187 -39 188 0
-171 172 0
-85 86 0
-121 -9 123 0
-91 24 0
-252 35 253 0
-269 270 0
-33 -11 0
3 73 0
-34 33 0
-13 214 0
-207 208 0
-66 67 0
-164 -27 166 0
-101 -25 0
-116 31 117 0
39 0
-237 -18 239 0
-46 45 0
-67 71 0
-73 4 75 0
-64 -2 66 0
-221 -45 222 0
-156 160 0
-224 25 0
-164 165 0
-218 -44 0
-109 110 0
-159 28 160 0
-243 39 0
-95 26 0
-2 65 0
-97 102 0
-210 45 0
-61 4 62 0
-47 2 49 0
-227 230 0
-37 -9 0
-238 239 0
-200 202 0
-222 -46 0
-12 11 0
-48 23 50 0
-94 25 95 0
-58 62 0
-180 -12 182 0
-126 -10 127 0
19 245 0
-147 -42 149 0
-3 77 0
-157 28 0
-1 51 0
-219 -45 0
20 246 0
37 177 0
-165 -28 167 0
43 211 0
-120 -8 122 0
-129 132 0
-136 41 138 0
2 48 0
-19 254 0
20 0
-106 115 0
-135 10 137 0
-14 198 0
-86 -38 0
-157 158 0
-47 48 0
-53 -23 0
-256 -21 258 0
-145 150 0
-110 117 0
-257 -22 259 0
-121 126 0
-7 120 0
-6 85 0
-142 43 143 0
-20 19 0
-160 29 161 0
-185 -39 0
-1 64 0
-50 24 0
-88 23 90 0
15 0
-70 -4 71 0
-12 163 0
23 93 0
-192 34 194 0
-59 60 0
-238 -18 240 0
-72 -32 0
-161 30 0
-129 -31 130 0
-243 244 0
-8 7 0
-171 12 173 0
-255 -21 257 0
-234 -16 236 0
-27 -7 0
-60 63 0
19 0
2 56 0
-154 27 156 0
-149 152 0
-114 119 0
10 136 0
-14 215 0
-106 9 108 0
-56 3 58 0
-158 161 0
-224 225 0
-83 -28 0
-154 159 0
-62 31 63 0
-84 -6 0
-253 36 0
-267 -22 269 0
-99 103 0
-182 -37 184 0
-162 163 0
-107 108 0
-32 31 0
-118 33 119 0
-196 36 0
-202 -35 0
-181 186 0
-227 17 229 0
-203 -35 204 0
1 55 0
-236 237 0
-267 268 0
-74 41 76 0
-255 260 0
-31 -5 0
-262 -36 0
-64 65 0
-81 -6 0
-44 43 0
-96 -8 98 0
-99 -24 101 0
-93 24 94 0
-37 186 0
-248 22 250 0
-71 -31 72 0
-153 154 0
-39 -13 0
-23 102 0
4 74 0
15 223 0
-127 130 0
-193 194 0
-208 44 210 0
41 141 0
-33 201 0
-16 235 0
-242 18 0
-112 118 0
-123 127 0
-259 -35 0
-100 -24 0
-185 188 0
-67 -4 69 0
-130 133 0
-152 -44 0
-59 4 0
-5 0
-205 206 0
-58 4 60 0
-97 -23 99 0
-149 -43 0
18 232 0
-9 126 0
-65 -3 67 0
-201 203 0
-266 46 0
-104 -26 0
-57 58 0
-9 144 0
-214 -14 216 0
-148 -42 0
-108 116 0
-80 -42 0
-158 29 0
-10 129 0
-147 151 0
-124 125 0
-217 -44 219 0
-155 156 0
-51 -2 53 0
-35 -17 0
-100 101 0
-41 150 0
-190 33 192 0
-133 -33 134 0
-268 -45 270 0
-88 93 0
-124 -10 0
-75 41 0
-270 -46 0
-215 -43 217 0
-105 8 107 0
-173 37 175 0
-183 187 0
-113 32 0
-130 -32 131 0
-245 20 247 0
-81 82 0
-6 5 0
-122 -9 124 0
-235 -17 237 0
-223 16 0
-257 261 0
-261 -35 262 0
-117 32 118 0
-232 29 233 0
-265 266 0
-4 78 0
-226 16 228 0
21 251 0
-102 -24 103 0
7 87 0
9 115 0
-220 -44 221 0
27 159 0
-18 17 0
-174 178 0
-136 141 0
-182 183 0
-188 -40 0
-55 2 57 0
-92 95 0
-85 -37 0
-247 21 249 0
-5 81 0
-191 192 0
-101 104 0
25 225 0
-82 -27 0
-228 17 0
-105 106 0
-184 -38 0
14 206 0
-174 38 176 0
-30 29 0
-250 35 0
-163 -27 165 0
-175 38 0
-249 250 0
-128 131 0
-139 140 0
-12 181 0
-84 85 0
-258 259 0
-234 235 0
-148 149 0
-43 220 0
-230 232 0
-183 -38 185 0
-209 44 0
-42 41 0
-140 143 0
-120 121 0
-212 45 213 0
-96 97 0
-207 43 209 0
-125 128 0
17 230 0
-137 41 139 0
-90 94 0
-178 39 179 0
-98 99 0
-144 -10 146 0
39 244 0
-241 -30 0
-27 168 0
-179 40 0
-218 219 0
-260 -22 261 0
-77 78 0
-264 45 266 0
16 224 0
-215 220 0
-246 251 0
-150 -42 151 0
-49 23 0
3 61 0
-128 -32 0
-151 -43 152 0
-7 96 0
-55 56 0
-168 -28 169 0
-244 40 0
-109 10 111 0
-254 255 0
5 6 37 38 0
-199 200 0
-144 145 0
-89 90 0
13 205 0
-259 262 0
-184 185 0
-172 177 0
-195 35 0
-200 -34 0
-68 -4 0
-198 -33 200 0
-91 92 0
