p cnf 151 288
-36 37 0
-16 15 0
-121 25 122 0
10 98 0
-108 -29 110 0
-143 -16 145 0
15 149 0
-63 68 0
-145 148 0
-64 7 66 0
-78 -7 80 0
11 115 0
-71 23 72 0
-119 121 0
-101 102 0
-149 16 0
-80 88 0
-46 -17 48 0
-2 -1 0
12 116 0
-39 43 0
-146 -16 147 0
-55 -29 0
-68 71 0
-67 70 0
-11 123 0
1 33 0
-47 48 0
-133 134 0
16 150 0
-26 25 0
-131 14 133 0
-70 73 0
22 0
-69 72 0
-135 136 0
-49 50 0
31 0
-124 -13 126 0
-79 80 0
-28 27 0
-100 30 102 0
-77 -6 79 0
-79 -7 81 0
-20 19 0
-4 3 0
-80 -8 82 0
-112 -30 113 0
-132 15 134 0
-102 105 0
-29 56 0
-65 69 0
2 34 0
-81 82 0
-83 -23 85 0
-95 -27 0
-58 59 0
-35 24 0
19 59 0
-6 5 0
-34 23 0
-62 6 64 0
-132 137 0
-15 146 0
15 0
-37 17 39 0
-6 78 0
-5 77 0
-45 -4 47 0
-115 116 0
-150 31 0
-151 32 0
-138 27 139 0
-59 60 0
13 131 0
15 137 0
-127 -14 129 0
-93 -9 0
-123 -12 125 0
-136 139 0
-118 120 0
-46 51 0
-60 61 0
5 62 0
-92 93 0
17 0
-41 19 0
-43 19 44 0
-120 122 0
-8 7 0
-149 150 0
-147 -27 148 0
-94 95 0
6 63 0
-93 94 0
-111 -31 0
21 61 0
-125 126 0
-38 39 0
-137 16 138 0
-18 17 0
-113 -31 114 0
-133 15 135 0
-10 9 0
-84 90 0
-144 -16 0
-116 119 0
1 0
-99 29 101 0
-95 96 0
-127 128 0
-24 -23 -2 -1 0
-40 41 0
-97 10 99 0
-42 18 43 0
19 0
-4 46 0
-96 -28 0
-4 55 0
-122 26 0
-91 -26 0
-87 -8 88 0
-27 96 0
-110 -30 0
-78 87 0
-12 124 0
-142 -15 144 0
-94 -10 0
-7 92 0
5 57 0
-136 27 0
-38 17 40 0
12 0
-117 13 0
-106 107 0
-71 74 0
21 0
-125 -13 127 0
23 35 0
13 119 0
-30 29 0
6 58 0
-22 21 0
-128 -25 130 0
-102 31 0
-84 -24 86 0
-41 44 0
-73 76 0
-69 23 70 0
20 60 0
-72 75 0
-40 18 0
-83 84 0
-32 31 0
-86 -25 0
-66 8 0
-63 7 65 0
-24 23 0
-114 -32 0
-141 -15 143 0
23 74 0
-9 106 0
5 0
-23 -3 0
31 151 0
23 0
-140 141 0
-85 86 0
-50 53 0
-103 30 104 0
-92 -8 0
-126 -14 128 0
-89 -24 90 0
-10 107 0
-82 -23 84 0
7 68 0
-109 113 0
-106 -10 108 0
-29 112 0
-36 4 38 0
-7 87 0
-117 118 0
-62 63 0
-130 -26 0
-140 -14 142 0
-134 16 136 0
7 8 9 10 27 28 0
-123 124 0
-145 -27 0
-32 -31 -16 -15 0
-65 8 67 0
1 2 0
-48 52 0
-150 151 0
-64 65 0
-129 -25 0
3 4 29 30 0
-70 24 0
-54 -4 0
-90 -25 91 0
-107 112 0
-143 147 0
-57 6 0
-66 67 0
14 121 0
-81 -8 83 0
-97 98 0
-72 24 73 0
-139 28 0
18 0
-67 23 0
-82 89 0
-118 14 0
-101 30 0
-98 29 100 0
-37 42 0
-39 18 41 0
-58 19 0
-99 100 0
-135 16 0
-120 25 0
-86 91 0
-9 94 0
-8 93 0
-59 20 0
-47 -17 49 0
-105 32 0
11 0
-45 46 0
-75 25 76 0
-77 78 0
-108 109 0
-115 12 117 0
-131 132 0
-44 20 0
-33 2 0
14 132 0
-148 -28 0
-10 95 0
-61 22 0
-60 21 0
-100 104 0
-85 -24 0
-52 -19 53 0
-22 -21 -20 -19 -6 -5 0
17 42 0
-54 55 0
-2 1 0
-3 45 0
-134 138 0
-74 24 75 0
-3 54 0
-53 -20 0
-104 31 105 0
-110 111 0
-142 143 0
-48 -18 50 0
-55 56 0
-98 103 0
3 36 0
-109 -30 111 0
-144 145 0
-57 58 0
-119 14 120 0
-33 34 0
-116 13 118 0
-73 25 0
-12 11 0
-51 -18 52 0
-13 140 0
-50 -19 0
-111 114 0
-129 130 0
-76 26 0
-68 8 69 0
-49 -18 0
-34 35 0
-17 51 0
8 71 0
-14 13 0
29 103 0
-141 146 0
-14 141 0
4 37 0
-107 -29 109 0
9 97 0
-88 -23 89 0
-56 -30 0
