p cnf 229 430
-16 15 0
-40 -39 -18 -17 0
-99 26 0
-70 71 0
-172 42 174 0
-196 197 0
-78 37 79 0
-57 -3 59 0
-135 14 137 0
-204 -27 0
-60 -4 61 0
-48 2 50 0
-181 185 0
11 117 0
-188 31 190 0
-48 49 0
-28 27 0
-193 -31 0
-4 3 0
-225 44 0
12 118 0
-137 138 0
-82 83 0
-113 114 0
-58 59 0
-6 69 0
20 207 0
14 136 0
14 154 0
-2 57 0
-137 25 139 0
-138 142 0
-205 -28 0
-40 39 0
17 0
-16 167 0
-172 176 0
-88 8 0
-180 181 0
9 10 35 36 0
25 141 0
-189 190 0
39 197 0
-22 227 0
-102 -23 104 0
-64 6 66 0
-181 -42 183 0
5 64 0
-81 -7 83 0
-3 60 0
-103 -24 105 0
-54 33 0
6 65 0
-75 77 0
-72 73 0
-219 221 0
3 0
-216 217 0
-129 133 0
2 49 0
-161 162 0
17 187 0
-90 42 0
-200 27 0
-146 147 0
-83 -8 85 0
-62 -33 63 0
-65 29 67 0
-146 -25 148 0
-180 -41 182 0
-24 23 0
-166 168 0
-162 -15 164 0
-19 214 0
-1 56 0
-110 -35 0
-162 165 0
-228 229 0
-173 174 0
-204 205 0
-79 38 0
7 0
1 48 0
-67 30 0
-4 -3 0
-170 175 0
-36 35 0
-87 -38 0
37 123 0
-130 131 0
-18 192 0
-111 -36 0
-183 -43 0
-152 -28 0
-154 15 156 0
-14 162 0
3 4 0
-157 16 159 0
-182 -42 0
-127 132 0
-149 -27 0
-2 1 0
-103 107 0
-131 134 0
-148 -26 0
-56 57 0
-189 31 0
-15 165 0
8 78 0
-170 41 172 0
-217 -22 0
-186 -44 0
22 223 0
-174 177 0
-61 63 0
-141 26 142 0
11 12 29 30 31 32 0
-14 13 0
-187 18 189 0
-168 -36 0
-178 179 0
-104 -24 0
-57 60 0
-171 41 173 0
-68 69 0
-210 22 212 0
-74 7 0
-212 33 0
-197 40 0
-35 111 0
-15 178 0
-208 21 210 0
-52 4 54 0
-46 47 0
-221 -34 0
-26 25 0
-13 144 0
-135 136 0
-80 81 0
-92 23 94 0
-159 35 0
7 76 0
16 170 0
-76 8 77 0
-22 0
-165 -16 166 0
-59 -4 0
23 47 0
-38 37 0
18 188 0
-202 203 0
-9 100 0
-9 109 0
-169 16 171 0
19 198 0
-126 -12 128 0
-4 62 0
-202 -20 204 0
-37 132 0
-10 9 0
-20 215 0
15 169 0
-120 124 0
-217 219 0
-214 215 0
-128 129 0
-159 160 0
-109 -10 0
-104 105 0
-116 -32 0
-101 106 0
-22 21 0
-201 28 0
-145 -25 147 0
-164 166 0
-98 25 99 0
-29 -9 0
-115 -31 0
-229 -44 0
-131 -39 0
-195 196 0
-226 227 0
-105 108 0
-171 172 0
-46 23 0
-120 38 122 0
-176 43 177 0
18 196 0
-33 -11 0
-34 33 0
-147 -26 149 0
-97 24 98 0
-63 -34 0
-190 32 0
-117 12 119 0
-66 67 0
-134 -40 0
-68 -6 70 0
-216 -21 0
-144 -14 146 0
-175 42 176 0
-70 -29 0
-198 20 200 0
39 0
-215 218 0
-86 -37 0
-222 22 224 0
-138 26 140 0
-109 110 0
-54 55 0
-101 -23 103 0
-214 -20 216 0
-128 -37 130 0
-59 61 0
-30 115 0
-12 11 0
41 175 0
-5 68 0
-85 -37 87 0
-121 122 0
5 72 0
-6 81 0
-21 218 0
-71 -30 0
6 73 0
-82 -7 84 0
-118 123 0
-203 -27 205 0
17 195 0
-16 179 0
-94 98 0
-215 -21 217 0
-157 158 0
-102 103 0
-218 -22 219 0
-145 150 0
-84 -8 86 0
-160 36 0
-166 -35 0
-164 -16 0
-20 19 0
-12 127 0
-163 -15 0
-142 27 143 0
-80 -6 82 0
-169 170 0
-200 201 0
-73 7 75 0
-114 115 0
-106 -24 107 0
-41 184 0
-31 -13 0
-133 -39 134 0
-179 -41 181 0
-212 213 0
-66 29 0
-69 -29 71 0
-96 25 0
-122 125 0
-8 7 0
-209 22 211 0
-12 113 0
1 0
-95 96 0
-126 127 0
-24 -23 -2 -1 0
-195 18 0
-178 -16 180 0
23 97 0
-149 152 0
-173 42 0
-55 34 0
-22 220 0
-224 225 0
-89 41 0
-199 27 201 0
-76 78 0
-184 -42 185 0
-165 167 0
-211 33 213 0
-52 53 0
-32 31 0
-119 37 121 0
-58 -3 0
23 0
-156 16 158 0
-47 24 0
-35 -11 0
-51 4 53 0
-136 25 138 0
-139 26 0
-114 -30 0
20 199 0
-228 -43 0
-119 120 0
-64 65 0
-44 43 0
-112 -12 0
-143 28 0
-208 209 0
-153 154 0
-177 44 0
-60 62 0
-31 116 0
-92 97 0
-193 194 0
-13 161 0
-45 46 0
-19 202 0
-61 -33 0
-130 -38 0
-194 -32 0
-121 38 0
-23 106 0
-91 10 93 0
1 45 0
19 206 0
-112 113 0
-88 89 0
-123 38 124 0
7 88 0
-167 -35 168 0
8 89 0
-96 99 0
-25 150 0
-196 39 0
-147 151 0
-155 156 0
-100 101 0
-191 -18 193 0
-124 39 125 0
-224 43 0
-198 199 0
-107 -25 108 0
-125 40 0
-223 43 225 0
-207 21 209 0
-14 145 0
41 90 0
-72 6 74 0
-6 5 0
-91 92 0
-115 116 0
-210 211 0
-56 -2 58 0
-150 -26 151 0
-155 15 157 0
-151 -27 152 0
-50 3 52 0
-206 20 208 0
-20 0
-10 101 0
-93 94 0
-226 -22 228 0
-10 110 0
-39 -15 0
-18 17 0
-127 -37 129 0
-53 33 55 0
-136 141 0
-182 183 0
-33 -17 0
-227 -43 229 0
-42 -41 -8 -7 0
-213 34 0
-140 27 0
-191 192 0
-49 3 51 0
-222 223 0
-174 43 0
13 135 0
13 153 0
-218 220 0
-77 79 0
-153 14 155 0
-100 -10 102 0
-74 75 0
-34 0
-50 51 0
-30 29 0
-183 186 0
-73 76 0
-139 140 0
10 92 0
-84 85 0
-132 -38 133 0
-33 -13 0
-220 -33 221 0
-148 149 0
-75 8 0
-185 -43 186 0
-21 226 0
-20 203 0
-86 87 0
-117 118 0
-42 41 0
-140 143 0
-206 207 0
-93 23 95 0
-29 114 0
-105 -25 0
-33 -9 0
-179 184 0
-5 80 0
9 91 0
-17 191 0
-129 -38 131 0
-95 24 0
-219 -33 0
-187 188 0
-163 164 0
-158 35 160 0
41 0
-108 -26 0
-122 39 0
-11 126 0
-33 -5 0
-110 111 0
-45 2 0
21 222 0
-77 37 0
-144 145 0
-192 -31 194 0
-89 90 0
-113 -29 0
-161 -14 163 0
2 46 0
-94 24 96 0
-118 37 120 0
-11 112 0
