p cnf 195 369
-16 15 0
-82 88 0
-101 102 0
-168 30 0
-12 134 0
-22 111 0
2 50 0
31 0
-79 80 0
-28 27 0
-4 3 0
-91 96 0
-137 138 0
-147 -37 0
-113 114 0
-58 59 0
5 60 0
-101 -35 103 0
-177 178 0
14 154 0
6 61 0
-152 -40 0
-187 20 0
-60 61 0
-40 39 0
17 0
35 0
-94 95 0
-13 169 0
35 96 0
-133 -12 135 0
-148 -38 0
-7 99 0
9 10 21 22 23 24 0
-76 85 0
-50 3 0
-183 -33 0
3 0
-95 98 0
-161 162 0
-192 193 0
-71 74 0
-51 52 0
-107 -38 0
-126 -33 0
-42 21 44 0
-182 -33 184 0
-7 85 0
-24 23 0
-77 -7 79 0
-166 168 0
-31 -7 0
-162 165 0
-173 174 0
-154 23 156 0
-80 -27 82 0
25 0
-162 15 164 0
-86 -27 87 0
-36 35 0
-80 87 0
-176 -30 0
-157 -14 159 0
-175 -29 0
16 167 0
-185 186 0
-99 100 0
-75 76 0
-96 36 97 0
-143 39 0
-2 1 0
-111 112 0
-44 22 0
-195 -40 0
-67 27 68 0
8 69 0
-112 -24 0
-52 27 0
-63 8 65 0
-97 37 98 0
-167 29 168 0
-12 0
-194 -39 0
-111 -23 0
-84 89 0
-87 -28 88 0
10 114 0
-14 13 0
-137 12 139 0
-161 14 163 0
-123 124 0
13 161 0
7 90 0
-99 -8 101 0
-174 -29 176 0
-46 -21 48 0
-93 97 0
-10 122 0
-14 170 0
-129 12 131 0
-26 25 0
-190 191 0
-69 72 0
-5 75 0
-135 136 0
-49 50 0
-66 8 67 0
-20 193 0
-175 176 0
-169 -14 171 0
-155 23 0
-95 37 0
9 113 0
27 72 0
-40 0
-48 -22 0
-185 18 0
-38 37 0
4 52 0
-47 -21 0
-45 -2 47 0
-147 148 0
-92 93 0
-102 -36 104 0
-10 9 0
-41 2 43 0
-70 28 71 0
-189 39 191 0
-183 184 0
-159 160 0
3 51 0
-61 66 0
-124 126 0
-127 -33 128 0
-22 21 0
-164 166 0
7 66 0
-29 -9 0
27 53 0
-79 -8 81 0
31 32 0
-171 172 0
-81 -27 83 0
-90 8 92 0
-28 -27 -4 -3 -2 -1 0
-33 -11 0
-34 33 0
-65 27 0
-78 -8 80 0
-124 -32 0
-151 -39 152 0
-53 28 0
-37 149 0
-150 -39 0
-61 7 63 0
15 177 0
-193 -39 195 0
-149 -38 150 0
-116 32 118 0
-128 -34 0
-119 33 0
-11 133 0
-138 37 140 0
-109 110 0
-62 7 64 0
14 162 0
-54 55 0
-179 33 0
-191 40 0
-12 146 0
-115 31 117 0
11 129 0
3 54 0
-12 11 0
12 130 0
-148 150 0
-145 146 0
-90 91 0
-121 122 0
-75 -6 77 0
-110 -22 0
-164 16 0
-126 128 0
25 59 0
-109 -21 0
-49 2 0
-157 158 0
-188 189 0
-67 70 0
-55 35 0
-133 134 0
-47 48 0
-70 73 0
-6 76 0
-74 30 0
-2 46 0
-20 19 0
-156 24 0
-118 33 120 0
-169 170 0
11 137 0
-58 25 0
-85 -8 86 0
-20 -19 -18 -17 0
-141 38 143 0
-54 4 0
-122 125 0
-69 27 70 0
-8 7 0
-150 152 0
8 91 0
1 0
-63 67 0
-181 182 0
17 185 0
-23 112 0
-171 -15 173 0
19 0
-159 -23 0
-158 -23 160 0
-83 -28 0
5 57 0
-173 -16 175 0
-1 45 0
6 58 0
-165 167 0
-52 53 0
-83 84 0
-32 31 0
5 0
2 42 0
-26 -25 -6 -5 0
-131 25 0
-141 142 0
-13 157 0
-100 -35 102 0
-146 149 0
-160 -24 0
-130 25 132 0
-84 -29 0
-43 21 0
-180 34 0
-119 120 0
-64 65 0
-60 6 62 0
-51 4 0
-181 -16 183 0
-172 -16 174 0
-153 154 0
-8 100 0
1 41 0
18 0
-93 36 95 0
-31 125 0
-170 -15 172 0
-120 34 0
-65 68 0
-73 29 74 0
-131 132 0
-45 46 0
-92 35 94 0
16 178 0
-35 105 0
-15 181 0
-178 33 180 0
-113 10 115 0
35 56 0
-76 -7 78 0
-9 108 0
-121 -10 123 0
19 188 0
-146 -37 148 0
-143 144 0
-57 58 0
-117 32 119 0
-122 -31 124 0
20 189 0
-125 -32 126 0
-123 -31 0
-105 -36 106 0
-106 -37 107 0
-186 187 0
4 55 0
-59 26 0
-144 40 0
1 49 0
-108 -10 0
-155 156 0
-9 121 0
-165 16 166 0
-103 104 0
-68 71 0
-56 36 0
-19 192 0
-82 -28 84 0
-71 29 0
-41 42 0
-94 36 0
-166 29 0
18 186 0
-81 82 0
-6 5 0
-145 -12 147 0
19 187 0
-98 38 0
-100 105 0
-115 116 0
-177 16 179 0
-103 -36 0
-21 110 0
-14 158 0
-18 17 0
-32 127 0
-36 -35 -4 -3 0
-38 151 0
-29 -11 0
-139 37 141 0
13 153 0
-88 -29 89 0
-153 14 155 0
-34 0
-50 51 0
-30 29 0
-194 195 0
-139 140 0
-89 -30 0
-104 107 0
-186 19 0
-25 -9 0
-132 26 0
12 138 0
-136 -26 0
-179 180 0
-11 145 0
-104 -37 0
-64 8 0
-140 38 142 0
-135 -25 0
-190 39 0
-32 -31 0
-117 118 0
-62 63 0
-184 -34 0
-188 20 190 0
-10 109 0
-57 6 0
-72 28 73 0
-43 44 0
-78 86 0
-91 35 93 0
-66 69 0
-163 164 0
-77 78 0
-108 109 0
-142 39 144 0
-16 182 0
-102 106 0
-68 28 0
-110 111 0
-55 56 0
-192 -20 194 0
-129 130 0
15 165 0
-114 31 116 0
27 0
-163 15 0
-149 151 0
-125 127 0
-134 -25 136 0
