p cnf 206 382
-64 -34 0
-67 68 0
-16 15 0
-72 -38 0
-116 -10 118 0
-27 122 0
-121 124 0
-63 -33 0
37 143 0
-71 -37 0
-153 25 154 0
-187 20 188 0
-17 190 0
-184 20 186 0
-121 -29 0
38 144 0
-174 -16 176 0
-87 -23 88 0
-163 -26 0
-117 -27 119 0
-21 85 0
2 50 0
-79 80 0
-28 27 0
-4 3 0
-137 138 0
-62 -33 64 0
-168 169 0
-31 -15 0
-7 104 0
-170 16 172 0
-179 25 0
-164 -14 0
-1 57 0
-199 20 201 0
-40 39 0
17 0
-136 -12 138 0
-150 24 0
-89 6 91 0
-142 37 0
-131 35 132 0
-173 40 0
-125 126 0
15 16 29 30 0
-83 -21 0
-96 33 97 0
-110 114 0
5 73 0
-191 -19 193 0
-54 33 0
-3 69 0
-75 21 77 0
-6 82 0
-119 123 0
-130 132 0
-27 -5 0
-88 -24 0
-184 188 0
17 178 0
-81 -6 83 0
-126 129 0
-192 193 0
-51 52 0
-188 31 189 0
-13 155 0
-193 197 0
-13 164 0
-201 202 0
-146 147 0
-42 21 44 0
-123 -29 124 0
-24 23 0
-203 -20 205 0
-84 -22 0
-154 26 0
-118 119 0
-63 64 0
7 0
-194 -20 0
25 0
-36 35 0
-133 -10 135 0
-58 -3 60 0
-29 169 0
-134 -11 136 0
-97 34 0
-65 66 0
-127 11 0
-167 -16 0
-185 186 0
-75 76 0
-157 -23 159 0
11 0
-182 187 0
-155 -14 157 0
-73 6 75 0
-110 28 112 0
-9 133 0
-2 1 0
-158 162 0
-111 112 0
-93 8 0
-142 143 0
7 95 0
-44 22 0
16 171 0
-195 -31 0
-99 104 0
-15 174 0
-52 54 0
-109 27 111 0
-14 13 0
19 199 0
-112 115 0
-178 179 0
-5 98 0
-158 -24 160 0
-152 24 153 0
-56 34 0
-52 4 0
-198 -32 0
-206 -36 0
-46 -21 48 0
-186 189 0
-79 23 0
-103 -33 0
-18 191 0
-128 130 0
4 66 0
-26 25 0
39 145 0
-182 19 184 0
-190 191 0
-74 21 76 0
-135 136 0
-49 50 0
-53 4 54 0
-19 203 0
-48 -22 0
-55 33 56 0
-108 113 0
-165 -31 0
-85 87 0
-22 0
-38 37 0
-14 156 0
-47 -21 0
-10 117 0
-14 165 0
-186 31 0
-45 -2 47 0
-116 117 0
-61 62 0
3 65 0
-151 25 0
-29 -13 0
-82 -21 84 0
-10 9 0
-41 2 43 0
-70 -37 72 0
-145 40 0
-94 33 0
-183 184 0
-159 160 0
-73 74 0
-129 12 130 0
-197 -31 198 0
10 108 0
-202 36 0
-40 -39 -38 -37 -12 -11 0
-156 161 0
-22 21 0
-128 12 0
-57 -2 59 0
13 146 0
-54 56 0
-104 -8 105 0
-192 -19 194 0
-50 53 0
-193 -20 195 0
-147 23 149 0
-28 -27 0
-85 -22 86 0
-76 22 78 0
-113 28 114 0
-86 -23 0
-169 -30 0
12 131 0
-34 33 0
6 74 0
9 107 0
-102 -8 0
9 125 0
-61 -4 63 0
18 182 0
39 0
-171 39 173 0
-111 28 0
-118 -27 120 0
-160 163 0
-101 105 0
-164 165 0
-109 110 0
-22 87 0
-181 18 183 0
11 129 0
-16 175 0
-12 11 0
-137 -12 139 0
-176 177 0
-6 99 0
-86 88 0
-115 30 0
-49 2 51 0
-140 -36 0
-80 24 0
-149 153 0
-175 -39 177 0
-157 158 0
-146 14 148 0
-139 -35 0
-102 103 0
-133 134 0
-47 48 0
-90 95 0
25 180 0
-2 46 0
-20 19 0
-200 35 202 0
17 181 0
-59 60 0
-156 -23 158 0
-82 85 0
-106 -34 0
-180 26 0
-172 39 0
20 200 0
14 147 0
-8 7 0
5 89 0
-204 -35 206 0
-107 10 109 0
27 113 0
-143 38 0
-205 -35 0
-181 182 0
-129 131 0
-71 72 0
37 0
-35 -15 0
-94 97 0
-103 106 0
-108 27 110 0
-141 12 0
-98 -6 100 0
-8 -7 0
-91 7 93 0
-1 45 0
13 14 31 32 0
-107 108 0
-83 84 0
-32 31 0
2 42 0
-112 29 0
-141 142 0
-67 37 0
-43 21 0
-119 -28 121 0
-150 151 0
-161 -24 162 0
1 41 0
-147 152 0
10 126 0
-45 46 0
-114 29 115 0
-165 166 0
-174 175 0
-205 206 0
-10 134 0
-160 -25 0
-143 144 0
-168 -29 0
-57 58 0
-4 70 0
-53 55 0
-69 -4 71 0
-15 167 0
-51 3 0
-151 154 0
4 55 0
1 49 0
-92 96 0
-155 156 0
-69 70 0
-100 101 0
-125 10 127 0
-95 8 96 0
-92 8 94 0
-149 24 151 0
-41 42 0
-59 -3 61 0
-84 86 0
-81 82 0
-135 -11 137 0
-6 5 0
-148 23 150 0
-196 -20 197 0
19 187 0
-9 116 0
-132 36 0
-170 171 0
-77 22 79 0
-126 11 128 0
-20 204 0
-19 196 0
-189 32 0
-50 3 52 0
-93 94 0
-185 20 0
-18 17 0
-144 39 0
-105 -33 106 0
-26 -25 -18 -17 0
-127 128 0
-78 23 80 0
23 152 0
-5 81 0
-167 168 0
-176 -39 0
-201 35 0
-178 18 0
-30 29 0
-194 195 0
-139 140 0
3 53 0
-203 204 0
-66 37 68 0
-148 149 0
-162 -25 163 0
-179 180 0
-68 38 0
-191 196 0
27 28 0
-177 -40 0
6 90 0
-195 198 0
-120 121 0
-183 19 185 0
11 141 0
12 142 0
-122 -28 123 0
-98 99 0
-99 -7 101 0
-43 44 0
-124 -30 0
-117 122 0
-77 78 0
-60 -4 62 0
15 170 0
-172 173 0
-65 4 67 0
-120 -28 0
-100 -7 102 0
-23 161 0
-130 35 0
-101 -8 103 0
-190 -18 192 0
-31 166 0
-199 200 0
-144 145 0
-166 -32 0
-89 90 0
-2 58 0
-138 -35 140 0
-90 7 92 0
-16 168 0
27 0
18 179 0
-159 -24 0
-91 92 0
7 8 0
