p cnf 2488 4721
-667 311 669 0
-102 101 0
-1972 1973 0
-2424 -190 2426 0
-1776 -375 1777 0
-193 2463 0
-1523 258 0
-346 1992 0
-1025 1029 0
-748 749 0
-1891 1897 0
-445 292 0
-669 312 671 0
-2213 -320 2214 0
-2297 2298 0
-1452 342 1454 0
-286 285 0
-2055 2060 0
-2395 2400 0
-1051 -281 1053 0
-110 1530 0
-1714 1715 0
-335 -129 0
-1073 1074 0
-1071 303 1072 0
-426 427 0
-1337 -94 1339 0
195 0
-1901 -143 1903 0
-1272 1273 0
-1960 -147 0
379 2252 0
-2092 308 0
-1501 -108 1503 0
-79 1145 0
-490 491 0
-2180 2181 0
-2469 196 2471 0
-661 -294 0
-1768 -134 1770 0
-1675 1679 0
-28 27 0
-464 -9 0
-178 2334 0
91 1296 0
-489 492 0
-385 958 0
-273 -33 0
-1456 1457 0
-815 816 0
-914 323 915 0
-1425 325 1426 0
-1671 257 0
80 1137 0
-148 147 0
-2122 2127 0
-1350 -246 0
-935 936 0
-212 211 0
-1159 293 1161 0
-1346 -96 0
63 941 0
-1781 1782 0
-145 1958 0
-1140 1141 0
-2190 168 2192 0
-756 758 0
-741 -365 743 0
-1339 1340 0
-615 617 0
-1349 -245 0
367 943 0
-557 558 0
-1323 -373 0
-1500 1508 0
368 944 0
-163 2167 0
139 1838 0
-882 883 0
-1313 -93 1315 0
-1402 1405 0
-968 203 969 0
-1282 275 0
-1854 140 1856 0
-2290 2291 0
281 875 0
140 1839 0
-905 -300 906 0
-2169 -272 0
-1848 1849 0
-861 862 0
-1168 296 0
-543 -24 0
-682 684 0
-103 1443 0
-241 835 0
-1872 -142 1874 0
142 1885 0
-901 905 0
-624 625 0
-517 522 0
-1795 -305 1797 0
-2110 2114 0
34 631 0
-2155 362 2156 0
-1186 1187 0
-2449 193 2451 0
-162 161 0
-1444 -325 1445 0
-1648 1650 0
-886 890 0
-1161 294 1163 0
-1469 1472 0
-856 -53 858 0
-282 281 0
12 0
-774 229 776 0
-1287 -92 0
-160 2113 0
-2357 2358 0
-2438 298 0
-132 1766 0
-2236 2239 0
-1311 374 0
-2216 2217 0
-2369 -182 2371 0
-928 929 0
-1526 -109 0
-1531 1533 0
-128 1736 0
25 554 0
-151 2018 0
-1286 -91 0
356 1211 0
-53 863 0
-578 -28 580 0
233 1226 0
108 1491 0
-24 23 0
-700 351 701 0
-1942 -287 1943 0
133 0
-2203 -167 2205 0
-1112 1113 0
-1594 1598 0
-276 0
-150 149 0
-670 671 0
-925 -323 927 0
-2290 174 0
398 0
-1578 1579 0
-491 493 0
-1841 1843 0
-1457 1460 0
-208 207 0
-1437 1438 0
-1293 -275 0
-941 64 0
-575 -27 577 0
-607 33 609 0
-2283 2284 0
-223 -65 0
-1434 1443 0
-2108 -308 0
-611 613 0
-334 333 0
-7 462 0
-386 960 0
-1546 374 1547 0
-2403 2404 0
-1078 -301 1080 0
-1808 335 0
-211 403 0
-943 368 0
-402 -211 0
-769 47 771 0
-1719 -286 1721 0
-1078 1083 0
-1400 -100 0
-1436 -104 1438 0
-1677 257 1678 0
-737 738 0
-1547 375 0
-275 2081 0
-2223 348 2225 0
-1138 203 1140 0
-76 75 0
-1946 1947 0
-2346 399 0
-475 478 0
-656 -292 657 0
-1966 1968 0
-1821 -138 1823 0
-68 1018 0
-229 -19 0
-510 20 512 0
-678 680 0
-163 2178 0
-834 -242 0
-2274 173 2276 0
-260 259 0
-416 420 0
-2448 192 2450 0
-2470 2471 0
-1983 -149 1985 0
-479 480 0
-1708 1711 0
-1907 1910 0
-1786 1791 0
-1246 1247 0
-1634 -215 1636 0
-1766 -133 1768 0
187 2412 0
87 1242 0
-803 222 804 0
-2189 2197 0
-358 -357 -356 -355 -84 -83 0
-1629 1631 0
-2 1 0
-27 582 0
-1264 -254 1266 0
-1571 1572 0
-1726 -288 0
-145 1938 0
-463 466 0
-8 452 0
-1066 1070 0
-388 1134 0
88 1243 0
-1329 1334 0
-2250 380 0
-122 121 0
-2316 -178 2317 0
-1102 369 1103 0
-1816 337 1817 0
-2396 2397 0
-1290 -273 1291 0
-1777 -376 1778 0
-780 -46 782 0
-1103 370 0
-2200 322 0
-788 790 0
-2017 2021 0
-221 -29 0
-1959 1962 0
-499 -16 501 0
-884 58 885 0
-914 916 0
33 610 0
-1107 372 0
-1497 1498 0
-106 1498 0
-1040 282 0
-1376 1379 0
133 1780 0
-2439 -190 2441 0
-2306 277 2307 0
-644 293 645 0
-1017 -68 1019 0
-1055 1056 0
-629 -264 0
-2170 164 2172 0
-1529 -255 0
-2405 2406 0
-394 393 0
-2264 2265 0
101 1418 0
-710 -41 712 0
-1822 1823 0
-2342 2345 0
-1857 1865 0
-536 24 537 0
-1658 -237 1660 0
-1348 -244 0
-1681 1682 0
-229 -29 0
-184 2374 0
-2478 -196 2480 0
-482 -12 484 0
122 1626 0
-750 385 0
-295 1603 0
-1247 253 0
359 1835 0
-2448 2449 0
-8 0
-1347 -243 0
-132 1746 0
-136 135 0
-655 659 0
369 945 0
-317 1966 0
-158 2102 0
-255 1532 0
-645 294 0
-256 255 0
-1039 1041 0
-1435 -103 1437 0
-589 -214 0
-2210 2213 0
-320 319 0
-1817 338 0
-2190 2191 0
-1442 1447 0
-781 784 0
-333 -109 0
-1748 1749 0
-2187 2196 0
74 1069 0
-460 461 0
-1607 1608 0
-370 -369 -368 -367 -64 -63 -62 -61 0
-2006 377 2007 0
-1394 285 1395 0
-1825 1831 0
-1754 134 0
-1863 227 0
-64 955 0
-1021 -70 1023 0
-2073 2074 0
-935 353 0
-2276 174 0
-1032 -254 0
201 966 0
357 1622 0
-1932 1933 0
-966 202 967 0
-158 2079 0
-1662 -239 1664 0
-958 -386 959 0
-465 467 0
-1748 -345 0
-182 181 0
111 1566 0
-1411 1412 0
-2001 378 0
-2277 2280 0
-2398 2399 0
-1651 239 1652 0
-2257 2258 0
-1610 1611 0
-1772 1778 0
-1879 -226 1880 0
-1489 1492 0
-1554 -112 1556 0
-1747 -344 0
223 989 0
112 1567 0
-1803 136 1805 0
-1616 -333 0
-366 365 0
-32 619 0
355 0
-71 1073 0
-1814 1817 0
-654 -36 655 0
107 1488 0
-2441 2442 0
-1372 1375 0
-1097 77 1099 0
-455 9 457 0
-50 49 0
-1557 1558 0
-311 682 0
-1099 78 0
-458 10 460 0
-2119 2120 0
-908 58 910 0
-2197 319 2198 0
-1337 1338 0
-1521 257 1523 0
-812 -222 813 0
-1399 -100 1401 0
-1536 1537 0
-2087 159 2089 0
-2428 -279 2429 0
-234 233 0
87 1222 0
-993 998 0
-2349 -180 2351 0
-874 281 0
253 1254 0
-1939 1943 0
-2202 2207 0
-1541 1544 0
-1569 393 0
-2144 2148 0
-591 31 593 0
-1220 1221 0
-2003 2007 0
-836 838 0
-486 -329 487 0
-1079 1080 0
-73 1089 0
-191 2445 0
-1440 1446 0
-1397 -99 1399 0
-850 265 0
-1355 98 1357 0
-2206 2209 0
-1219 1222 0
-2469 2473 0
-316 315 0
-2186 2187 0
-1424 1427 0
-2126 337 2127 0
-183 2385 0
-347 -161 0
-1823 1830 0
-1744 1745 0
-363 -169 0
-899 903 0
-96 95 0
-2137 -162 2139 0
-962 963 0
-318 1968 0
-256 1534 0
-821 822 0
-700 703 0
-2390 2393 0
-870 -266 0
-1182 -295 1183 0
-993 -223 995 0
-983 68 985 0
-1729 1730 0
-76 1092 0
-192 2458 0
-1261 -90 1263 0
-1810 335 1811 0
-1827 1832 0
-2413 189 2415 0
-1686 1691 0
-557 -24 559 0
-101 1413 0
-1486 1487 0
-641 645 0
129 130 131 132 343 344 345 346 0
173 2290 0
-2054 2055 0
-149 2010 0
-1280 274 1282 0
-1529 1531 0
-2171 165 2173 0
19 20 21 22 249 250 0
324 918 0
-448 -7 0
-1870 1875 0
174 2291 0
-703 706 0
-1330 1331 0
-806 -50 808 0
-1891 270 1893 0
129 1731 0
-2248 379 2250 0
-368 367 0
183 2376 0
-521 -221 0
29 30 211 212 213 214 0
-1096 76 1098 0
-446 447 0
-38 687 0
-722 -354 0
281 1041 0
-1796 1797 0
-1655 1656 0
143 1894 0
-2195 2200 0
-1631 217 1632 0
-2316 2319 0
-1874 1877 0
-916 324 917 0
-849 853 0
-1213 1214 0
-46 45 0
-1918 146 1920 0
-1644 124 0
-450 -8 451 0
-1211 357 0
-110 109 0
-1980 1981 0
-2131 339 2132 0
-605 -242 0
221 803 0
-2091 307 0
-2136 2142 0
-1468 206 0
-172 2269 0
-1538 1539 0
-193 2475 0
215 1217 0
32 607 0
-230 229 0
-97 1396 0
-311 -25 0
-508 513 0
-1999 377 2001 0
-2021 -379 0
-571 573 0
-114 1572 0
-2226 170 2227 0
-1619 -336 0
-1751 133 1753 0
-2415 190 2417 0
-1765 -132 1767 0
-1275 92 1277 0
162 2150 0
-666 38 668 0
238 1651 0
-1403 -283 1404 0
-363 -179 0
-1601 -296 1602 0
-2440 -191 2442 0
-1280 1281 0
-1508 -235 1509 0
199 756 0
-2039 246 0
-512 515 0
-2106 -307 2108 0
-2125 2129 0
-755 757 0
-711 -42 713 0
159 2117 0
-2246 2247 0
-1259 1260 0
-1642 123 1644 0
-618 619 0
-1686 -257 1688 0
-313 -57 0
-35 674 0
-2388 2392 0
-1464 1465 0
-2167 2168 0
-640 292 641 0
-2312 -177 2314 0
-46 781 0
-156 155 0
-1022 -251 1024 0
-1988 1990 0
-2251 2254 0
108 1513 0
-2231 2232 0
-907 -302 0
-1483 1488 0
-1584 1585 0
-2146 -338 2147 0
-172 2282 0
-587 -212 0
-1303 372 0
-1789 1790 0
-1196 -82 1198 0
-519 -20 521 0
-1982 -148 1984 0
-420 -229 421 0
-2351 2352 0
-1001 1002 0
-2386 -185 2388 0
-866 -265 0
-340 339 0
-1072 304 0
-1343 -390 1344 0
-844 263 846 0
-1194 315 0
170 2247 0
-1730 1732 0
-34 647 0
-1494 236 1495 0
-325 -91 0
-1594 -116 1596 0
-1709 286 1710 0
-1941 -289 0
-2065 158 2067 0
-1026 1030 0
-2379 186 2381 0
-1838 140 1840 0
-82 81 0
-56 893 0
-317 1612 0
-277 2322 0
-1933 1939 0
-2400 188 2401 0
-1966 -318 1967 0
-761 -199 763 0
-1927 288 1928 0
-1976 1977 0
-1835 1836 0
-425 6 427 0
69 1009 0
-1194 1195 0
-1997 2003 0
-307 -145 0
-162 2159 0
-2457 -192 2459 0
-1053 1054 0
-1724 -286 1725 0
-1207 -316 0
-1750 132 1752 0
-1771 -375 1773 0
-1513 109 1515 0
-290 289 0
-616 263 617 0
-1373 -265 1374 0
43 727 0
-1537 111 1539 0
-1672 258 0
-497 -15 499 0
-771 48 773 0
-801 222 0
85 1218 0
-1554 1562 0
-1718 1719 0
-2039 2042 0
-1597 1600 0
120 1621 0
-1200 -84 1201 0
-936 937 0
25 566 0
-1782 1783 0
-795 796 0
-2485 2486 0
-860 -263 862 0
86 1219 0
-1442 -327 0
-1110 -77 1112 0
40 694 0
-1227 235 0
82 1185 0
-1261 1262 0
-658 -291 659 0
-813 -223 814 0
-795 -251 0
-1120 1121 0
-480 -11 482 0
-1165 293 1166 0
-167 2207 0
-1146 -203 1148 0
-2357 182 2359 0
-1240 1241 0
-259 -155 0
-2271 -210 0
-216 215 0
-811 -223 0
-1081 1085 0
-2164 -362 2165 0
-1493 237 0
-242 837 0
335 1815 0
-1139 1143 0
-342 341 0
-239 -141 0
-785 -229 0
-98 1375 0
-400 399 0
-590 30 592 0
-2207 -168 2208 0
-881 886 0
-2111 2115 0
126 1677 0
-225 -121 0
-1707 1710 0
-1323 1327 0
-2110 -307 2111 0
-2372 -364 0
60 914 0
-1954 1955 0
-604 605 0
-2153 2154 0
-1512 1513 0
-1668 1674 0
-1931 1938 0
-1578 115 1580 0
-2012 2013 0
-1185 83 1187 0
-204 203 0
-1571 -114 0
-41 718 0
-866 870 0
-2453 321 0
-2072 278 0
-305 -109 0
-2051 2058 0
-579 -323 581 0
14 0
-2415 2419 0
-2406 -188 2408 0
366 733 0
-1390 1395 0
-2337 2338 0
-1450 341 1452 0
-1049 1050 0
-1174 -293 0
-388 387 0
-584 -342 0
-807 812 0
-35 654 0
-29 585 0
-1052 -282 1054 0
-1894 144 1895 0
-848 263 849 0
-729 731 0
-46 761 0
-1189 313 1191 0
-1439 -325 1441 0
-2446 -297 2447 0
-229 788 0
-2236 -347 0
-245 -123 0
-1253 1256 0
-2019 -377 2020 0
-2220 2221 0
-2040 245 2041 0
-51 831 0
-341 -91 0
-811 814 0
-1242 88 1244 0
-275 -109 0
-1058 73 1060 0
-1266 -255 0
-1859 225 1861 0
-168 2232 0
-130 129 0
-549 554 0
-883 300 0
-913 915 0
-1470 206 1471 0
-612 614 0
-2118 2125 0
-70 1046 0
-855 856 0
-1506 -237 0
-42 736 0
-2205 2206 0
-1700 1704 0
-1116 1117 0
-1622 1623 0
-1564 -375 1565 0
-2116 -310 0
-1389 284 0
-314 313 0
-1479 -206 1480 0
-1481 -208 0
5 438 0
-2286 -227 0
-2282 2287 0
-2130 338 2131 0
-1488 108 1489 0
-2345 2347 0
-1432 328 0
-1745 -132 0
383 506 0
-1334 390 1335 0
-2265 209 2267 0
-1300 1301 0
-426 6 428 0
-2257 -379 2259 0
-1179 1182 0
-1570 394 0
-1505 1506 0
-518 519 0
-581 -324 0
-1984 -149 0
-117 0
-1509 -236 1510 0
-1904 -269 0
-1959 -147 1961 0
-879 885 0
355 938 0
2 405 0
-2067 2068 0
-164 2179 0
-56 55 0
-824 243 826 0
-922 923 0
-2272 2273 0
-1625 1626 0
-2011 -151 2013 0
-2414 189 2416 0
-347 2243 0
156 2040 0
-2073 -156 2075 0
-1484 1485 0
-2365 182 2367 0
-843 844 0
-1262 1269 0
-781 -47 783 0
-1119 -372 0
-2374 -219 0
-184 2386 0
-401 402 0
-1226 234 1227 0
158 2086 0
-330 691 0
-2098 308 2099 0
-1950 1951 0
-600 601 0
-2092 2096 0
-1560 -375 0
-1184 82 1186 0
-1370 -98 0
-1304 1308 0
-1759 375 1760 0
-1835 360 0
-2014 2015 0
-1630 1632 0
-2049 2057 0
-1623 359 0
-1197 -83 1199 0
-2315 -277 0
-2391 -186 2392 0
-862 866 0
-2413 2418 0
-585 586 0
-1445 -326 1446 0
-444 445 0
-1160 293 1162 0
-2196 168 2197 0
73 74 75 76 331 332 333 334 0
-1566 112 0
-524 -222 0
-1321 -371 1322 0
-976 -203 0
-1551 1552 0
-910 911 0
-1014 252 1015 0
-1431 327 1432 0
-2278 174 2279 0
-457 10 459 0
-215 -105 0
-988 991 0
-2399 259 0
-1865 225 1866 0
-738 -44 740 0
397 2345 0
-259 -175 0
-928 -324 930 0
-1155 81 1157 0
-1755 1758 0
-1735 1736 0
-2018 2022 0
-1094 1095 0
-1241 -236 0
-1384 100 1386 0
-652 653 0
-2474 350 0
-152 2022 0
-511 512 0
-314 1206 0
-1650 239 0
-2201 2202 0
-190 189 0
-678 -38 679 0
-2077 -158 2078 0
-1278 1279 0
-2394 186 2396 0
-1263 -253 1265 0
-1478 -207 0
-1618 1619 0
-1953 318 1955 0
-2016 -377 0
-593 595 0
-926 -323 928 0
-1477 1478 0
-2343 397 0
-1915 145 1917 0
-1772 -376 1774 0
-1926 287 1927 0
-1035 1036 0
-2021 2025 0
-2080 -276 0
-2385 2386 0
-374 373 0
367 0
-751 386 0
-956 957 0
-868 -264 869 0
-2221 2228 0
62 940 0
-2314 -178 0
-1560 1565 0
-656 660 0
-1009 70 1010 0
-25 563 0
21 530 0
-823 242 825 0
-729 365 730 0
-1512 108 1514 0
-1784 396 0
-1812 335 1813 0
-1786 305 1788 0
-578 579 0
-1473 -106 1475 0
-879 58 881 0
-770 47 772 0
393 1570 0
-1815 336 1816 0
-931 -326 0
-1131 -388 0
-1102 1104 0
-116 115 0
-2301 277 2303 0
-2054 -246 0
-432 -5 0
-1685 1686 0
-357 -91 0
-2225 2230 0
-1949 148 1951 0
-2425 -190 0
-1423 1426 0
-2 402 0
-762 763 0
-2452 2453 0
-1023 1024 0
-300 299 0
121 1641 0
-1806 1810 0
-1522 257 0
-122 1654 0
-1869 1870 0
-2285 -174 0
-2371 -363 0
-725 43 0
-444 291 0
-936 354 0
-440 441 0
-191 2457 0
-26 575 0
-985 223 987 0
141 1884 0
-1614 -119 0
-1139 204 1141 0
-345 1990 0
200 0
-1013 251 1014 0
-504 505 0
-2194 2195 0
-1988 -345 1989 0
-1332 390 0
-1689 1693 0
-1412 1413 0
395 1784 0
-104 103 0
-1611 1612 0
-1227 1229 0
-1490 1493 0
-2322 -278 2323 0
-2381 239 0
30 591 0
-829 830 0
-17 516 0
-1674 1678 0
180 2342 0
-2378 2379 0
-1027 1031 0
-1737 1738 0
-177 2333 0
-1090 1091 0
-952 387 0
-1936 1937 0
-72 1074 0
-828 831 0
-1527 -110 0
-288 287 0
-546 -273 547 0
-1154 1155 0
-1030 -252 1031 0
-507 508 0
-241 -47 0
-1180 -295 0
-1653 -122 1655 0
-2062 157 2064 0
-1716 1717 0
-48 793 0
-1603 -296 1604 0
-2256 2261 0
357 0
-1713 1722 0
-1274 1275 0
-998 -224 999 0
-1210 356 0
-1632 218 0
-602 -32 604 0
155 2061 0
-468 -311 469 0
-593 32 0
-691 692 0
109 1536 0
-30 29 0
213 0
-896 897 0
-1478 1481 0
-2212 -321 0
-500 -16 502 0
-1458 1459 0
-160 2134 0
-1206 -315 1207 0
-2338 -309 2340 0
-1940 1944 0
97 1381 0
-243 -79 0
37 38 39 40 329 330 331 332 0
-732 367 0
381 2488 0
-574 575 0
-532 23 534 0
-649 -36 651 0
-760 -46 762 0
-1609 -315 0
-1744 -131 0
-754 199 0
-1064 302 0
98 1382 0
-1734 328 0
-1783 1784 0
-809 -222 811 0
-1647 237 1648 0
-143 1930 0
-1806 138 1808 0
-1341 1342 0
-1659 -237 1661 0
-1033 70 1035 0
-2124 2128 0
-2184 -289 2185 0
-2336 -180 2338 0
-559 560 0
-715 721 0
-836 -243 0
-1057 72 1059 0
-1498 1507 0
-1743 -130 0
-118 1614 0
-900 904 0
-1015 253 1016 0
-1545 1548 0
-1910 -271 0
-213 -79 0
-45 780 0
-1404 1407 0
-708 -40 710 0
-2115 -309 2116 0
-2258 -380 2260 0
-743 744 0
-1482 106 1484 0
-1987 1989 0
-1502 1509 0
-1864 142 1865 0
-566 26 568 0
-2371 2372 0
-2292 2293 0
-942 943 0
-428 261 0
-79 1169 0
-1205 1207 0
-1687 -257 0
-1302 371 0
-1850 1851 0
-500 501 0
-623 -261 625 0
-2105 -160 2107 0
-787 -230 0
7 454 0
-840 847 0
-501 -365 503 0
-903 907 0
-1530 1532 0
-626 627 0
-1711 288 0
-2194 320 0
-611 261 0
-638 36 639 0
-516 -18 518 0
-825 826 0
-704 707 0
-1309 372 1310 0
-164 163 0
-815 50 817 0
-1421 104 1423 0
-1650 1652 0
-1565 -376 0
-2011 2018 0
-2068 276 2070 0
-1375 -265 1376 0
-1532 -256 1533 0
-1849 -208 1851 0
-810 811 0
-2317 2320 0
-1151 -204 1152 0
-2097 307 2098 0
-205 1479 0
-2102 -159 2104 0
-595 241 0
-2359 2360 0
-2238 2241 0
-1351 96 1353 0
83 1208 0
-348 347 0
-1276 92 1278 0
-561 -26 0
-830 832 0
-2239 -348 0
-940 63 0
-488 489 0
-2258 2262 0
-19 522 0
-994 995 0
84 1209 0
-610 612 0
-1873 -142 0
-345 -137 0
-1469 207 0
-2150 361 2152 0
-454 8 456 0
-552 553 0
-2209 -320 0
-1714 -127 1716 0
-2299 178 2301 0
59 0
-2101 2102 0
-2157 364 0
-98 1397 0
-2036 245 0
-90 89 0
-1960 1961 0
-1659 1660 0
-672 673 0
-1354 1362 0
-2179 2182 0
75 1096 0
-2292 176 0
-1518 1519 0
-1585 297 0
-409 229 0
-73 1081 0
-2442 2446 0
-493 495 0
-417 -4 0
-2289 -228 0
-955 958 0
-1921 1925 0
-2285 2286 0
-537 273 538 0
-2466 194 2468 0
-713 720 0
-418 -229 0
-274 273 0
-871 54 0
-1010 251 1011 0
-2484 2485 0
-1358 1364 0
-431 -5 433 0
-1459 1461 0
-1426 326 0
-2339 -309 0
-1061 1062 0
-5 434 0
-677 679 0
-945 370 0
64 942 0
-1550 376 0
132 1751 0
13 488 0
-1721 1726 0
-2168 2169 0
-2027 2028 0
-869 -265 870 0
-1906 1909 0
-2390 -239 0
-739 740 0
-16 15 0
-1736 -129 1738 0
-598 599 0
-1792 307 1793 0
-1074 -73 1076 0
-1201 1203 0
-1007 251 0
-1080 1084 0
-957 -386 0
-1398 -99 1400 0
-1608 -118 0
-1704 285 1705 0
-1914 144 1916 0
-638 642 0
-696 42 698 0
-2030 -220 0
-1503 -235 1505 0
-802 805 0
-1065 1069 0
-1681 -124 1683 0
-1769 1770 0
-1128 1129 0
162 2129 0
-481 482 0
-1123 388 1125 0
-1587 295 1588 0
13 0
-690 -330 0
-1006 1011 0
97 1361 0
-806 807 0
-1448 104 1450 0
-1486 108 0
-1948 147 1950 0
-544 547 0
-1255 255 1256 0
-4 3 0
-1885 143 1887 0
-2163 -363 0
-689 -329 0
-355 -75 0
-2172 165 2174 0
-349 -181 0
-682 -312 683 0
-1145 -80 1147 0
-727 44 728 0
-1868 228 0
-2468 195 2470 0
-598 -30 600 0
-1836 1837 0
-1861 226 1863 0
-548 549 0
-596 241 597 0
-758 201 759 0
-1331 1335 0
-2240 -347 2241 0
208 1844 0
-1617 -334 0
-2477 -195 2479 0
399 0
-572 323 573 0
156 2062 0
-45 760 0
-2040 2043 0
-2253 381 2254 0
-1919 1924 0
-552 26 0
-1105 371 0
-1252 1255 0
71 1057 0
393 1782 0
-87 1257 0
-270 269 0
-2302 2308 0
-1499 1500 0
-1365 268 0
105 1464 0
-19 525 0
-631 35 633 0
-1961 1963 0
-297 -157 0
-1057 1058 0
-1719 1725 0
-1903 1904 0
-816 51 818 0
-1345 -392 0
-1490 236 0
-973 -202 975 0
-1042 283 0
-915 324 0
-1250 254 0
-474 475 0
-893 900 0
-1993 -348 0
-585 -30 0
-1831 -337 1832 0
-1319 1323 0
-1683 1684 0
-1998 152 2000 0
-2082 -277 0
-2102 2109 0
113 114 267 268 269 270 0
-1909 -270 1910 0
-1761 1764 0
-2422 -189 2424 0
-2087 2088 0
-275 -97 0
-799 800 0
-441 8 443 0
-138 137 0
-63 954 0
-2106 2111 0
-304 1416 0
-1566 1567 0
-2412 2413 0
-506 384 0
-1041 1043 0
-156 2074 0
-983 984 0
-1041 282 1042 0
-1906 -269 1907 0
145 1922 0
-322 321 0
-2032 155 2034 0
-2192 2193 0
-612 261 613 0
-2123 337 0
-541 542 0
-2431 2436 0
-125 1689 0
-1750 1751 0
-1805 137 1807 0
-329 690 0
-1245 1249 0
46 753 0
-918 325 919 0
175 2295 0
-562 -299 0
-526 527 0
-783 785 0
-1208 84 0
-189 2427 0
-2075 2076 0
-717 -353 0
-725 726 0
-1062 301 1064 0
-1379 -267 1380 0
-2389 -186 0
-64 63 0
-92 1313 0
-1934 1935 0
-1300 94 1302 0
-2191 319 2193 0
-2063 157 2065 0
176 2296 0
-2032 2037 0
-2133 2134 0
-2275 2279 0
-449 -8 0
-1371 1374 0
-249 0
-184 183 0
-775 230 777 0
-2259 2260 0
-2313 -178 2315 0
-248 247 0
-617 264 0
-730 732 0
-1418 102 1420 0
-1667 125 1669 0
-2142 -337 2143 0
-1492 236 1493 0
-1292 1294 0
-1376 -266 1377 0
281 0
-251 -51 0
-1774 1779 0
-1234 1235 0
-1220 87 0
-1093 1094 0
-1305 371 1306 0
-792 793 0
-275 -143 0
-1900 1905 0
-2215 -322 0
-1536 110 1538 0
34 612 0
-92 1290 0
-1880 1883 0
-2034 156 2036 0
137 0
-1559 1560 0
-835 837 0
-576 -27 578 0
389 1334 0
-677 -38 0
214 1216 0
-1317 1322 0
-1418 1419 0
-1514 109 1516 0
-2096 309 0
-1417 -306 0
-641 293 0
-976 977 0
-1538 111 1540 0
-498 -15 500 0
-704 353 0
-825 243 0
-2201 -166 2203 0
-2280 228 0
-488 14 490 0
-911 60 0
-923 -60 925 0
-1884 1885 0
-1579 1587 0
-2304 279 0
-1111 -78 1113 0
-1743 1744 0
-440 7 442 0
14 489 0
-647 -35 649 0
-1453 343 1455 0
-2104 2110 0
-829 -51 0
-917 919 0
-1180 1183 0
-1797 -306 1799 0
-1160 1161 0
-714 -351 716 0
-195 2481 0
-1 401 0
-2005 2009 0
351 705 0
-2230 350 0
-75 1091 0
-1583 1589 0
-2204 2208 0
-2467 2472 0
-496 -14 498 0
-742 -366 744 0
-1058 1065 0
-2350 -397 2352 0
-1101 1103 0
-1408 -284 1409 0
-838 -244 0
-317 -127 0
-1606 -116 0
-382 381 0
107 1512 0
-706 353 707 0
-1977 346 1979 0
-534 24 0
-2471 2474 0
-823 824 0
-1062 1067 0
-1596 -295 0
-785 787 0
-1305 1309 0
-1669 1670 0
136 1804 0
-1836 361 0
-2028 -218 0
71 1037 0
-1310 373 1311 0
-2476 2481 0
-863 867 0
-1925 289 0
-60 59 0
169 2246 0
-1809 1812 0
-37 686 0
-2135 2136 0
-1846 -140 1848 0
-1504 -236 1506 0
-124 123 0
-297 -177 0
-1994 1995 0
-107 1524 0
65 962 0
-471 11 473 0
-1643 123 0
-2 414 0
-2397 2401 0
-147 1982 0
-244 243 0
-721 -353 722 0
-1756 134 1757 0
-2132 340 0
-1027 -252 1028 0
-1392 283 1393 0
-2178 2179 0
-2244 -349 2245 0
-1756 1759 0
-2139 -337 0
-2325 178 2327 0
-448 449 0
-2318 2321 0
-2433 192 2435 0
-2354 -399 2356 0
-186 2404 0
-1876 1879 0
-888 299 889 0
-1856 1857 0
-1215 1216 0
-2275 174 2277 0
-2050 -156 2052 0
-831 833 0
-511 20 0
-1785 136 1787 0
-1789 306 0
-2061 2062 0
-1036 1038 0
-1884 142 1886 0
-1920 1921 0
-1712 -126 1714 0
146 1947 0
-531 536 0
-632 633 0
-36 658 0
-2454 194 2455 0
-1581 295 1583 0
-295 -91 0
-170 169 0
-592 31 0
-1620 120 0
-1860 225 1862 0
-1595 -116 0
88 1224 0
-296 295 0
-1583 296 1585 0
-419 -4 420 0
-1626 215 1628 0
-1803 1804 0
-2042 247 0
155 2037 0
115 1586 0
-2048 -155 2050 0
-2093 160 2094 0
-170 2240 0
-2365 2366 0
369 0
-354 353 0
-1900 -143 1902 0
39 693 0
-2199 321 2200 0
-1282 1283 0
-2393 -240 0
81 1184 0
-1484 107 1486 0
-757 759 0
192 2449 0
-446 -6 448 0
-1106 371 1107 0
-1330 389 1332 0
-1855 141 1857 0
-1172 -82 1174 0
-38 37 0
-2248 2249 0
-1223 1225 0
-2107 2108 0
-329 -27 0
-1466 1467 0
-2249 2253 0
-1144 206 0
-2312 2313 0
-243 -67 0
-33 646 0
-1665 1666 0
-1396 -98 1398 0
-1287 1289 0
-1544 1547 0
-569 28 0
-519 523 0
-752 46 754 0
-222 221 0
-1283 276 0
-2432 2433 0
-974 -202 976 0
-542 -24 544 0
-1004 70 1006 0
-965 967 0
-1384 1392 0
-305 1800 0
-1208 1209 0
-1728 1731 0
-1325 -372 1326 0
-766 767 0
-291 -23 0
-331 -59 0
163 2170 0
-733 367 734 0
-304 303 0
-2174 2175 0
-161 2158 0
-1028 1032 0
-743 -366 745 0
-887 891 0
-84 83 0
-953 388 0
-492 16 493 0
-950 951 0
282 1043 0
-1858 1859 0
-2398 188 0
-635 291 637 0
-2237 2240 0
-1095 -334 0
-1596 1599 0
-1916 1917 0
-1498 -107 1500 0
126 1698 0
-293 -55 0
-1738 -130 1740 0
-1878 -225 1879 0
195 2472 0
-1252 254 1253 0
205 1470 0
-649 655 0
-1341 -390 0
-685 -314 0
53 847 0
-948 385 950 0
-1156 81 1158 0
359 0
-2262 -381 2263 0
-2161 -362 2163 0
-1436 1444 0
-1901 1902 0
-1167 295 1168 0
-2078 -275 0
-487 -330 0
-1999 2004 0
123 1665 0
-292 291 0
-604 -241 0
-434 436 0
-843 54 845 0
-1318 1319 0
-451 -291 0
-1017 1018 0
-1086 -302 1087 0
-2198 320 2199 0
-165 2201 0
215 0
-356 355 0
-876 877 0
-1599 1602 0
-1842 1844 0
-492 494 0
-1374 -266 0
-1415 -304 0
124 1666 0
-2425 2426 0
-797 798 0
-2452 194 0
-1299 1305 0
-2117 160 2119 0
-1643 1644 0
-273 1292 0
171 2272 0
-2317 -277 2318 0
200 758 0
-1612 -318 0
-1169 -80 1171 0
-2436 192 2437 0
-2214 -321 2215 0
-34 33 0
-1717 -285 1719 0
-147 1962 0
-2180 -165 0
-696 700 0
-412 230 0
-119 1615 0
-1157 1165 0
-98 97 0
353 936 0
182 2366 0
-877 57 879 0
-2233 -169 2235 0
-902 -300 903 0
-539 540 0
-1526 1527 0
-1405 1408 0
-418 421 0
-1385 1386 0
-1187 84 1189 0
-218 217 0
354 937 0
1 404 0
95 1351 0
-539 -22 541 0
-429 262 0
-943 944 0
-507 18 509 0
-1829 -335 1830 0
69 1033 0
-1363 266 1364 0
-1525 1528 0
-1788 1792 0
-1924 288 1925 0
35 662 0
-1020 1026 0
-2128 2132 0
-2177 290 0
-2375 -220 0
-909 59 911 0
-5 446 0
-422 423 0
-1409 -285 1410 0
157 2085 0
-1602 -297 0
-2477 2478 0
-2296 177 2298 0
16 505 0
-1191 314 1193 0
-2035 2036 0
-1769 -134 1771 0
-747 748 0
-1137 203 1139 0
-2018 -152 2019 0
-1146 1151 0
-1845 210 0
-606 607 0
-2456 322 0
-2182 -166 2183 0
-1452 1453 0
-1869 -140 1871 0
67 1001 0
-103 1456 0
-837 -243 838 0
-1931 -145 1933 0
-144 143 0
89 1248 0
-2239 2242 0
-28 583 0
-1338 -389 1340 0
-1548 374 1549 0
-1572 1573 0
81 1164 0
-2187 167 2189 0
-167 2231 0
-155 2056 0
-652 -291 0
-2420 280 0
-2339 2340 0
-2005 379 0
-2442 -192 2444 0
-233 -79 0
-328 327 0
-1031 -253 1032 0
-567 570 0
-239 -153 0
-1654 -123 1656 0
-1297 93 1299 0
-633 36 635 0
-2379 2383 0
-357 -109 0
-731 733 0
-470 10 472 0
-2107 -307 0
-1314 1315 0
61 0
-674 -36 676 0
-809 813 0
-12 11 0
-532 533 0
-1423 325 0
-2051 -245 2053 0
-2222 2223 0
-2422 2427 0
-1314 -93 1316 0
-2344 2346 0
-1859 1866 0
-2081 -276 2082 0
-70 69 0
-964 201 0
-1639 1640 0
-614 616 0
-872 55 0
-1281 275 1283 0
-857 858 0
-1397 1402 0
-1460 1462 0
-1155 1164 0
-196 195 0
-2426 2429 0
-2431 191 2433 0
-415 416 0
-1228 235 1229 0
-639 291 640 0
-327 -109 0
-2249 380 2251 0
-2133 -160 2135 0
-9 466 0
-786 -229 787 0
-221 812 0
-1702 1705 0
-2028 2029 0
391 1568 0
-1381 1382 0
-1644 1646 0
-2049 -156 2051 0
-1159 1166 0
-85 1230 0
-1026 -251 1027 0
-2380 186 0
-273 -53 0
-1018 1025 0
-2373 -184 0
-1257 -88 1259 0
27 28 341 342 0
-278 277 0
-765 -201 767 0
392 1569 0
-39 708 0
-1391 100 1392 0
-2353 2354 0
-297 -145 0
-1366 1367 0
-1622 358 0
-433 -6 0
-1599 -296 0
-1870 -141 1872 0
-1433 -102 1435 0
-58 57 0
-188 2422 0
-560 564 0
-924 925 0
-2295 176 2297 0
188 2413 0
-169 2255 0
-2481 -196 2482 0
54 872 0
-472 11 474 0
-1268 -253 1269 0
-1692 -259 0
-142 1900 0
-2211 2214 0
-1910 1913 0
-20 19 0
137 1809 0
-51 855 0
-1890 1891 0
-1818 -136 1820 0
323 916 0
123 1645 0
-1108 1109 0
-1264 1270 0
-1448 1449 0
-2434 192 0
-2159 -361 2161 0
-1149 -204 0
-666 667 0
-259 -141 0
-1615 -120 0
-697 42 0
-525 526 0
-1248 1251 0
47 48 249 250 251 252 0
-1710 287 1711 0
-131 1765 0
-219 2030 0
-2152 2156 0
-2186 166 2188 0
15 0
-1433 1434 0
-2125 162 2126 0
139 1854 0
-217 -139 0
-2402 260 0
-1329 389 1331 0
-330 329 0
-632 35 634 0
-227 -153 0
-1152 -205 1153 0
-466 468 0
-349 -179 0
-960 -387 961 0
-1553 1554 0
-408 409 0
140 1855 0
-1617 1618 0
-1794 -136 1796 0
-970 971 0
-477 329 478 0
-1199 -84 0
-2111 -308 2112 0
-2326 179 2328 0
-1928 289 1929 0
-1223 233 0
-2079 2081 0
-189 2439 0
-8 7 0
-341 584 0
-1437 -104 1439 0
-731 366 732 0
-746 -368 0
102 1419 0
-72 71 0
-592 593 0
-1198 -83 0
-2462 2465 0
-2297 177 2299 0
-772 48 774 0
-1174 1177 0
-2424 2428 0
-2430 190 2432 0
-1964 -317 1965 0
-20 526 0
-631 638 0
-192 191 0
-712 713 0
-995 999 0
-1359 1360 0
-520 -20 0
-591 594 0
-115 1606 0
-1699 1700 0
-1783 395 0
-709 718 0
-1620 1621 0
-1464 106 1466 0
-776 777 0
-1652 240 0
-126 1713 0
153 2031 0
-2082 2084 0
172 2273 0
-1704 1707 0
-2325 2326 0
-1611 -317 0
-1320 1324 0
-2466 2467 0
-2046 -154 2048 0
-2188 167 2190 0
-1251 253 1252 0
-376 375 0
-1242 1243 0
-74 1085 0
-1215 214 0
-168 2210 0
-1222 88 1223 0
-454 455 0
-1154 80 1156 0
-1610 -316 0
-514 221 515 0
-93 1337 0
-580 581 0
-1108 -76 1110 0
-1170 -81 1172 0
-1042 1044 0
-25 574 0
-118 117 0
-2113 -307 2114 0
-556 300 0
-333 1095 0
-1893 271 0
-239 -173 0
-789 -231 0
-718 -42 719 0
-1425 1428 0
-1688 1692 0
358 1623 0
-764 765 0
-1693 -257 1694 0
-2150 2155 0
-1226 1228 0
-1968 -319 1969 0
-302 301 0
-1688 -258 0
-621 -34 623 0
-1 413 0
-1361 98 1362 0
-784 786 0
-1625 122 1627 0
-1871 1872 0
383 749 0
-343 -109 0
-1929 290 0
-1307 373 0
-1577 115 1579 0
-1556 -373 1558 0
-1827 -337 0
-997 -225 0
-1085 -301 1086 0
-2154 2157 0
68 1002 0
-405 410 0
384 750 0
-1853 -210 0
-1043 283 1044 0
-47 792 0
-1691 1695 0
-396 -395 -394 -393 -134 -133 0
-1826 -336 0
-269 1911 0
-847 851 0
-1362 265 1363 0
-44 43 0
-181 2369 0
391 0
-2410 -259 2411 0
-1613 1614 0
-1492 1495 0
-865 -264 866 0
-2459 2460 0
-1886 143 1888 0
-11 485 0
-885 299 886 0
-1171 1172 0
-2380 2381 0
-1293 1295 0
-265 -69 0
-909 912 0
-1172 1176 0
18 0
-293 1181 0
-2138 2143 0
-2437 297 2438 0
247 0
-588 589 0
-485 -12 486 0
-756 200 757 0
-58 904 0
-747 44 0
262 616 0
-297 -165 0
127 1703 0
-849 264 850 0
-1355 1356 0
-1551 -110 1553 0
-714 715 0
113 1576 0
-850 854 0
-1214 1215 0
-117 1608 0
-2362 -339 2364 0
-146 1959 0
-252 251 0
-1063 301 0
-1212 358 0
-2429 -280 0
-476 12 477 0
-1510 -237 1511 0
-333 -83 0
-95 1366 0
-345 1749 0
-898 899 0
-1912 -271 1913 0
-1477 -206 0
-1517 255 1519 0
-2326 2329 0
-453 -292 0
-1296 92 1298 0
-213 -45 0
-582 -28 0
-970 -66 972 0
-1917 146 1919 0
-2404 2409 0
-1986 1988 0
-1996 151 1998 0
-1422 1423 0
-735 -42 737 0
-2126 2130 0
-734 368 0
-82 1197 0
-178 177 0
15 492 0
-2048 2049 0
-831 -52 832 0
117 118 119 120 333 334 335 336 0
-890 301 891 0
-902 906 0
-1024 -252 0
-1606 1607 0
-1973 150 1975 0
-478 330 0
-930 -325 0
-2451 2455 0
-618 -32 620 0
-1179 -294 1180 0
-1663 -239 0
-2041 246 2042 0
-1555 -112 1557 0
-1862 226 0
-1306 1310 0
-2373 2374 0
-1258 -89 1260 0
381 0
-1989 1991 0
-1822 -138 1824 0
-362 361 0
-858 -54 860 0
56 874 0
-1591 1592 0
-944 945 0
-1810 1813 0
-1132 -388 1133 0
-1575 -270 0
-2099 309 2100 0
-2281 -172 2283 0
-427 261 429 0
-435 -261 0
-1149 1150 0
-2033 155 2035 0
122 1642 0
-2455 321 2456 0
-692 -332 0
-1348 1349 0
-265 -79 0
-1760 376 1761 0
-2000 377 0
-1081 -74 1082 0
-2152 362 2154 0
-456 9 458 0
-566 567 0
-1532 1534 0
-1574 -269 0
-1635 -215 1637 0
-1731 1733 0
-691 -331 0
-1819 -137 1821 0
-474 12 0
-686 687 0
-31 618 0
-613 262 0
-750 751 0
-1549 375 1550 0
-2319 2322 0
-1788 306 1790 0
-2299 2300 0
-65 970 0
-2347 399 2348 0
-2296 2305 0
-1584 296 0
42 724 0
-1216 1217 0
-1218 86 1220 0
-133 1775 0
-832 834 0
-447 -7 449 0
-1807 138 0
-384 -383 -16 -15 0
-1075 1076 0
-1415 1416 0
-428 429 0
-2217 2226 0
-2444 -297 0
-2319 -277 2320 0
-2392 -239 2393 0
-622 -34 624 0
-1856 141 1858 0
-2064 158 2066 0
-2119 161 2121 0
-2056 -156 2057 0
-407 4 409 0
-1313 1320 0
-736 -43 738 0
-1400 1401 0
-526 -21 0
-558 -25 560 0
-944 369 0
-92 91 0
-1387 283 1389 0
-1939 -287 1940 0
-2084 -278 0
-2395 187 2397 0
-1229 236 0
-817 818 0
-1520 1521 0
-433 435 0
-1524 -108 1526 0
-1598 -295 1599 0
-2002 2006 0
-2227 347 2228 0
-1668 126 1670 0
-1429 327 0
-856 863 0
-904 -299 905 0
195 2484 0
-937 938 0
-1200 1202 0
-1356 1363 0
93 1304 0
-1141 205 0
-276 275 0
-662 36 664 0
-1871 -141 1873 0
-637 641 0
-317 -135 0
-924 -60 926 0
-1340 1344 0
-1967 1969 0
-1278 273 1280 0
-2449 2454 0
-1866 226 1867 0
-1141 1144 0
-969 204 0
-1889 269 1891 0
-664 37 666 0
-83 1200 0
-334 1618 0
-1950 148 1952 0
-459 311 461 0
-699 702 0
146 1926 0
-2029 2030 0
-1969 -320 0
-1636 -216 1638 0
-1657 -124 1659 0
-1887 144 1889 0
-18 17 0
-951 387 953 0
-1908 1911 0
-182 0
-37 678 0
-1193 315 1195 0
-2331 309 2332 0
-1885 1894 0
-705 352 706 0
-1080 -302 0
-1082 1086 0
-2088 160 2090 0
-2323 -279 2324 0
-1145 1146 0
-100 1412 0
-1495 237 1496 0
-1936 -287 0
-1975 345 1977 0
83 0
-1209 1210 0
-381 -179 0
-977 -204 0
-1978 346 1980 0
-2311 2316 0
-1670 1675 0
-1771 1772 0
-1316 -94 1318 0
-2112 2116 0
385 751 0
-95 1346 0
-1733 327 1734 0
-1292 -274 1293 0
-1188 1189 0
-2397 188 2399 0
35 638 0
-1787 305 1789 0
-226 225 0
-847 54 848 0
-213 -65 0
-1528 -110 1529 0
-1752 133 1754 0
-1008 1012 0
-1148 -204 1150 0
-930 931 0
-2144 -339 0
-2471 349 0
-2009 380 0
-2017 -378 0
-1838 1839 0
-1576 114 1578 0
-54 867 0
-2237 -170 2238 0
-171 2268 0
215 1629 0
-1697 1698 0
-1396 1397 0
-712 -42 714 0
-1183 -296 0
-551 555 0
-1795 1800 0
-261 -21 0
135 1785 0
-2042 2045 0
189 2430 0
-152 151 0
-285 -113 0
-2419 279 2420 0
-166 2202 0
-94 1324 0
-1188 84 1190 0
49 815 0
-1580 1581 0
-1254 254 1255 0
-939 940 0
-1843 1845 0
-1552 -111 1554 0
136 1786 0
-655 -291 656 0
-1069 301 1070 0
-1317 -371 1319 0
-1338 1343 0
-1439 1440 0
-1582 295 1584 0
-1253 255 0
-233 -67 0
-753 199 755 0
-613 615 0
50 816 0
-336 335 0
-967 203 0
-913 323 0
-303 1415 0
-810 -222 0
-1963 1965 0
16 494 0
-1356 265 1358 0
-2304 2309 0
-1907 -270 0
-124 1682 0
245 2043 0
-2145 -337 2146 0
-2377 185 2379 0
-1597 -116 1598 0
-917 325 0
-1055 -283 0
-2089 2090 0
-78 77 0
-2458 -193 2460 0
-225 -85 0
-912 60 913 0
-2193 320 2195 0
-337 -147 0
-135 1794 0
-2414 2415 0
-187 2421 0
-299 -35 0
-680 682 0
-608 33 0
-1720 -286 0
-1607 -117 0
-423 5 425 0
-985 986 0
-262 261 0
-38 680 0
-762 -199 764 0
-1467 1471 0
-493 365 0
-791 -232 0
29 590 0
-1000 -226 0
-543 544 0
-1190 1191 0
-1420 103 1422 0
400 0
-1389 1390 0
-402 403 0
-619 -33 621 0
-822 242 824 0
-1573 -268 0
-331 692 0
-884 888 0
-2234 2238 0
-1005 70 1007 0
-2093 2097 0
-2417 279 0
-1169 1170 0
-889 300 890 0
-2324 -280 0
-1010 1014 0
-1572 -267 0
-2300 277 2302 0
94 1329 0
-1850 -208 1852 0
-2341 180 2343 0
-897 -299 899 0
-1573 1574 0
-1068 1072 0
-2162 -362 0
-513 20 514 0
168 2217 0
-1060 74 1062 0
-683 -313 0
-1742 -328 0
-250 249 0
-255 -95 0
-2140 -338 0
-732 734 0
-1678 258 1679 0
-2242 -349 0
-1202 -313 1203 0
-434 -6 435 0
-2013 -152 2015 0
92 1297 0
-680 -311 681 0
-1236 1237 0
-1441 1442 0
-1248 90 1249 0
-794 795 0
145 1946 0
63 0
-29 598 0
-916 918 0
6 439 0
-1285 -91 1287 0
-469 -312 0
-1269 -254 1270 0
72 1058 0
-1420 1421 0
-1499 -107 1501 0
-2223 2229 0
-2286 2289 0
-2407 2408 0
-396 395 0
-14 497 0
63 946 0
-1902 1906 0
-1979 347 1981 0
-978 979 0
-580 -323 0
305 1791 0
-840 53 842 0
-2266 2267 0
-1824 1825 0
-473 477 0
-96 1367 0
-1703 1706 0
-2344 398 0
-1940 -288 1941 0
197 2486 0
-1745 1746 0
-86 1231 0
-818 52 820 0
-1214 213 0
-2008 379 2009 0
-490 15 0
-2149 2150 0
-1162 1163 0
-1581 1588 0
-876 56 878 0
-2293 2294 0
-40 709 0
-200 199 0
-2234 -170 2236 0
-961 -388 0
-258 257 0
-2023 -378 2024 0
-1851 -209 1853 0
-1103 1105 0
-2232 2237 0
-2333 2334 0
-2409 -188 2410 0
-1585 1590 0
-1825 -336 1827 0
-231 -49 0
-1045 1046 0
-2212 2215 0
-173 2287 0
-1456 -104 1458 0
-384 383 0
80 1155 0
-52 856 0
-1553 -111 1555 0
-1763 377 1764 0
-462 463 0
-1307 1311 0
-1671 1672 0
-1370 1371 0
-1249 1252 0
285 1709 0
-865 869 0
-1277 273 1279 0
-1011 252 1012 0
-901 -299 902 0
-937 355 0
-437 -262 0
-1823 -335 1825 0
-126 125 0
-646 647 0
57 884 0
17 0
-1192 314 1194 0
-1875 1878 0
-1996 1997 0
-2478 2482 0
-549 25 551 0
-2473 349 2474 0
-467 469 0
-2074 2077 0
-1240 -235 0
-2367 363 0
-1413 1414 0
-772 773 0
-1427 325 1428 0
-310 309 0
-52 833 0
-657 -293 0
-190 2440 0
54 851 0
-1339 -389 1341 0
-2399 2402 0
-1758 1761 0
-2447 -298 0
-2210 -319 2211 0
-2154 363 0
-225 -105 0
-1296 1297 0
-912 914 0
-1074 1081 0
-1175 1178 0
-2112 -309 0
-1034 1037 0
-69 1045 0
-1342 -391 0
-2063 2064 0
-52 51 0
-471 476 0
-116 1607 0
-6 0
-1621 1622 0
-1447 -328 0
-2475 -194 2477 0
-105 1473 0
-839 840 0
-2052 -245 2054 0
-172 171 0
-1475 -205 1477 0
-1989 -346 0
-533 537 0
-1216 215 0
-642 291 643 0
-1680 260 0
-236 235 0
-2043 246 2044 0
-1805 1806 0
-553 299 0
-1454 343 0
-1637 -216 1639 0
-863 -54 864 0
-1683 -125 1685 0
-1941 1945 0
-2308 279 2309 0
-1543 1546 0
-2134 -161 2136 0
-568 27 0
-1133 -389 0
-1867 227 1868 0
-2181 -166 0
-755 200 0
-780 781 0
-245 -107 0
-2388 -186 2390 0
151 0
-144 1931 0
-1147 -203 1149 0
-1504 1510 0
-1762 376 1763 0
-2208 2211 0
-341 -75 0
369 1104 0
181 2365 0
-1372 -98 1373 0
-503 -366 0
-1426 1429 0
-157 2077 0
-1285 1288 0
-1613 -118 0
-1766 1775 0
-2314 2315 0
-759 202 0
-964 965 0
-2160 2161 0
-479 -10 481 0
-267 1573 0
-963 966 0
-159 2109 0
-1100 78 1101 0
-2143 -338 2144 0
-80 1170 0
-2376 184 2378 0
-946 64 948 0
-1696 -260 0
-1385 100 1387 0
202 968 0
-1770 1777 0
-2013 2019 0
15 504 0
-804 223 805 0
-1692 1696 0
-1158 82 1160 0
-763 -200 765 0
-2178 -164 2180 0
-768 769 0
-144 1908 0
-319 -159 0
-597 242 0
-2195 321 0
-1614 1615 0
-2459 -193 2461 0
-934 62 0
-1493 1496 0
-1562 -373 1563 0
-1473 1474 0
-306 305 0
-1728 129 1730 0
393 0
-422 4 424 0
207 1842 0
-2260 2263 0
-370 369 0
-952 953 0
-2202 -167 2204 0
-594 32 595 0
-1798 1799 0
-40 689 0
-1600 -295 1601 0
-802 223 0
-820 241 822 0
-282 -281 -56 -55 -54 -53 0
-1419 103 1421 0
-1657 1658 0
-1457 -341 1459 0
-1271 -256 0
-48 47 0
-2181 2183 0
-1235 -233 1237 0
172 2265 0
-660 -293 661 0
-599 -31 601 0
-2444 2447 0
-2123 2124 0
-1136 1137 0
-1511 -238 0
-2404 -187 2406 0
-112 111 0
-636 291 0
-1982 1983 0
-628 -263 0
-957 959 0
-1357 265 1359 0
-169 2237 0
-1540 1541 0
-421 -230 0
-788 -230 789 0
-2451 194 2453 0
128 1706 0
-232 231 0
-2307 278 2308 0
-1059 73 1061 0
-509 19 511 0
-1019 1020 0
-1438 1445 0
149 1994 0
-2185 -290 0
-1259 -89 1261 0
-878 879 0
-1297 1304 0
-1097 1100 0
-713 -351 715 0
-2472 196 2473 0
-2385 -184 2387 0
-475 329 0
-1821 1829 0
125 1673 0
144 1915 0
-1270 -255 1271 0
-1500 -108 1502 0
150 1995 0
-2127 2131 0
-315 -91 0
-2176 289 0
-1142 204 1143 0
-1301 1306 0
-1593 -115 1595 0
-100 99 0
-620 621 0
-1519 256 1521 0
-573 324 0
-333 1617 0
-303 -81 0
-414 -3 416 0
-360 -359 -358 -357 -120 -119 0
-127 1722 0
-1407 1410 0
-158 157 0
-2235 -170 0
8 455 0
-1387 1388 0
-1990 1992 0
-2333 -178 2335 0
-2374 2375 0
-1239 -235 1241 0
-1768 1776 0
-2233 2234 0
-844 849 0
161 2125 0
-1008 252 0
-1716 -128 1718 0
-284 283 0
-185 2391 0
-47 784 0
53 871 0
383 0
-2070 277 2072 0
-797 50 799 0
-70 1029 0
-1712 1713 0
-2007 378 2008 0
-2204 -168 2206 0
-181 2361 0
-1539 112 1541 0
-139 1869 0
-693 40 695 0
-1533 1535 0
-1790 1793 0
-2035 156 0
-489 15 491 0
-1723 -285 1724 0
361 2155 0
-1732 1734 0
-687 688 0
-2193 2199 0
-26 25 0
-1557 -373 1559 0
-1595 1596 0
-1627 215 0
-2462 -321 0
-1454 1455 0
-1121 387 1123 0
-1333 1336 0
-2351 -397 2353 0
-146 145 0
-1653 1654 0
-122 1634 0
-1875 -142 1876 0
-871 872 0
-314 0
-210 209 0
-203 1151 0
141 1864 0
-2293 247 0
-219 2375 0
-724 43 726 0
-1537 1542 0
-1978 1979 0
-139 1846 0
-1902 -144 1904 0
-1196 1197 0
-1809 138 1810 0
-2487 381 0
-2337 -180 2339 0
-754 755 0
-1983 1986 0
-1703 128 1704 0
-548 24 550 0
-159 2133 0
-2303 2304 0
-1390 285 0
-2277 227 0
-315 -101 0
-2162 2163 0
-534 535 0
-2041 2044 0
-1819 1828 0
-1044 284 0
-2367 2368 0
-1951 317 1953 0
-895 901 0
-2309 280 0
-1761 377 0
-2386 2391 0
-1846 1847 0
-496 497 0
-2487 2488 0
-309 -165 0
-1916 145 1918 0
-1861 1867 0
-1233 -88 1235 0
-417 418 0
-571 323 0
68 984 0
-1518 255 1520 0
-956 -385 0
-1263 1264 0
-1682 1689 0
-895 -58 897 0
-1476 -206 1478 0
-1122 1123 0
-1545 373 1546 0
-335 1619 0
-1722 -128 1723 0
-276 2083 0
89 1272 0
-1326 -373 1327 0
-1646 1648 0
-1256 256 0
-1236 -233 1238 0
-1301 371 1303 0
-672 313 0
-1407 -285 0
-1909 1912 0
-2029 -219 0
-2260 -381 0
-1204 1206 0
-1083 1087 0
90 1273 0
-280 279 0
-2057 -245 2058 0
-2069 276 2071 0
-2127 338 2128 0
44 748 0
-1903 -144 0
-558 563 0
-1005 1006 0
-1971 149 1973 0
-1624 360 0
-1705 286 0
-2222 347 2224 0
-344 343 0
-2355 2356 0
-2370 -363 2372 0
-1974 150 1976 0
-1842 208 1843 0
-1088 -304 0
-2191 2198 0
-2435 297 0
85 0
17 507 0
-22 21 0
-48 786 0
-2034 2038 0
-1874 -225 0
-726 728 0
-86 85 0
-1956 1957 0
-668 669 0
-2403 -186 2405 0
-1514 1515 0
-527 528 0
-540 -23 542 0
-315 1610 0
-1009 1013 0
-141 1875 0
-206 205 0
-939 62 0
-1520 256 1522 0
-2281 2282 0
-1604 -297 1605 0
-89 1284 0
-2384 240 0
-1428 326 1429 0
-798 221 800 0
-1563 -374 1564 0
-1051 1052 0
-2364 -340 0
-390 389 0
-1802 -308 0
-681 -312 0
-947 385 949 0
-2159 2164 0
-125 1712 0
-2025 -380 0
-1818 1819 0
-2081 2083 0
-1943 -288 1944 0
-1371 -265 0
-842 54 844 0
-735 736 0
-1299 94 1301 0
-1221 88 0
-1727 128 1729 0
-2163 2166 0
-2355 -399 0
-1075 -73 1077 0
-132 131 0
-233 982 0
-22 528 0
-1964 1966 0
137 1833 0
-66 979 0
104 1427 0
163 164 271 272 0
-1765 1766 0
-778 779 0
-2468 2469 0
-1118 1119 0
-356 -355 -354 -353 -62 -61 -60 -59 0
-1666 125 1668 0
-997 1000 0
-2327 2328 0
138 1834 0
-1124 388 1126 0
-1892 270 0
-2118 161 2120 0
-1905 1908 0
-1991 -347 0
-1244 1245 0
-1946 146 1948 0
-177 2316 0
-650 -36 652 0
-515 222 0
-1386 283 1388 0
-342 1462 0
-1923 287 1924 0
-1579 116 1581 0
-57 920 0
-1302 1303 0
-1698 127 1700 0
-67 992 0
-2330 309 0
-520 521 0
-1134 -389 1135 0
-1841 208 0
-2221 347 2223 0
-726 44 0
-586 -211 0
-2069 2070 0
-136 1795 0
-1774 -377 0
-609 34 0
-1465 205 1467 0
-1451 342 1453 0
-949 386 951 0
-1627 1628 0
-1890 269 1892 0
-1990 -346 1991 0
-2274 2275 0
-845 846 0
-1888 144 1890 0
-1664 -240 0
-724 727 0
-2394 2395 0
-165 2182 0
-2231 -168 2233 0
-2089 160 2091 0
-1952 1953 0
-23 545 0
55 873 0
-932 60 0
-1491 1494 0
124 1647 0
-2094 2098 0
-2396 187 2398 0
-624 -261 626 0
-786 788 0
-1037 72 1038 0
-1605 -298 0
-2016 2017 0
-2246 170 2248 0
-607 610 0
-283 1408 0
-587 588 0
-703 352 704 0
-1944 -289 1945 0
9 470 0
-266 265 0
-766 -201 0
52 840 0
-142 1878 0
-1374 1377 0
-462 -8 464 0
-1113 -369 1115 0
-2122 337 2124 0
-2341 2342 0
-963 201 965 0
-2284 -174 2286 0
-1315 -94 1317 0
-1767 -133 1769 0
-407 411 0
-148 1983 0
-981 -233 0
-2121 2122 0
-470 471 0
-1274 91 1276 0
-1715 -128 1717 0
-2461 2462 0
173 0
-1335 391 1336 0
-2161 2165 0
-1319 -372 0
-2352 -398 2354 0
-748 383 0
-1757 1760 0
-1405 -283 1406 0
-2020 2024 0
-216 -215 -214 -213 -86 -85 0
-1096 1097 0
-1416 -305 0
-2148 -340 0
-1291 -274 0
-130 1744 0
-211 587 0
-312 684 0
-219 -171 0
-2140 2144 0
-1641 122 1643 0
-2203 2204 0
-1472 208 0
-325 -73 0
-1037 1039 0
360 1836 0
-527 -22 0
94 1308 0
-979 980 0
-595 597 0
-955 -385 957 0
-318 317 0
-244 1349 0
-1029 -251 1030 0
-2188 2189 0
-723 42 725 0
-1245 90 1247 0
-2387 2388 0
-1746 1747 0
-782 -47 0
361 1837 0
-1675 258 1676 0
-877 884 0
-1697 126 1699 0
-1221 1223 0
-1963 -317 0
-491 16 0
-1117 -371 1119 0
-2270 -209 0
-687 -39 0
-1778 -377 1779 0
-2071 2072 0
-248 -247 -176 -175 -174 -173 0
-2328 2330 0
-903 -301 0
-978 -66 0
-505 383 0
-1382 1391 0
-835 -242 836 0
-1930 1931 0
-2270 2271 0
-466 -10 467 0
-686 -38 0
-1136 80 1138 0
-2027 -217 0
-1104 1106 0
-1347 1348 0
-1933 -146 1935 0
-180 179 0
-2050 2051 0
-2378 185 2380 0
-776 230 778 0
-2255 2256 0
-2047 2056 0
-2158 -162 2160 0
-1608 1609 0
-1340 -390 1342 0
-219 0
-1386 1393 0
-1487 1490 0
-694 41 696 0
-1237 -234 1239 0
127 1727 0
-277 -163 0
-577 -28 579 0
18 508 0
-833 -241 834 0
-1288 1290 0
-1937 -288 0
-2058 -246 2059 0
-364 363 0
-1534 -257 1535 0
-1153 -206 0
-1230 1231 0
147 1970 0
128 1728 0
-424 5 426 0
-1089 1090 0
-896 -58 898 0
-442 443 0
-938 356 0
-1673 126 1674 0
-1812 1815 0
-2439 2440 0
-1267 -90 1268 0
-2465 -322 0
-436 -261 437 0
-2412 188 2414 0
148 1971 0
-568 569 0
-447 450 0
-1414 1415 0
-880 58 882 0
-313 1204 0
-1443 -104 1444 0
-2117 2118 0
-115 1597 0
-106 105 0
-109 1528 0
-972 973 0
-827 -50 829 0
-80 1146 0
85 1213 0
-2216 168 2218 0
-1676 1680 0
-325 -83 0
59 932 0
-1739 1740 0
-651 656 0
-752 753 0
45 768 0
-57 900 0
-1092 1093 0
-1112 -78 1114 0
-361 -149 0
119 1620 0
-1828 -138 1829 0
-2301 2302 0
-2000 2001 0
-323 -37 0
-648 -35 650 0
-1156 1157 0
86 1214 0
-1879 1882 0
-2142 2146 0
-1649 238 1650 0
-2001 2005 0
-1800 -306 1801 0
-2015 -377 2017 0
46 769 0
-2094 307 2095 0
-1077 1078 0
-2038 245 2039 0
-408 4 0
-698 351 0
-467 -311 0
-1276 1277 0
-2014 -152 2016 0
-1377 -267 0
-2147 -339 2148 0
-305 -127 0
-805 224 0
-1558 1564 0
-32 31 0
-1471 207 1472 0
-646 -34 648 0
-2114 -308 2115 0
-1258 1267 0
-819 820 0
103 1424 0
-1455 344 0
-435 437 0
-698 701 0
-179 2349 0
-2004 2008 0
-148 0
-817 51 819 0
-959 -387 0
-1421 1425 0
-1785 1786 0
-841 53 843 0
-245 -141 0
-443 291 445 0
-1811 336 0
-639 643 0
-1003 1004 0
-522 -20 523 0
-2263 -382 0
-671 313 673 0
-858 864 0
-1485 1489 0
-561 562 0
-265 1378 0
-120 1616 0
-240 239 0
-361 2164 0
-701 704 0
-1328 1329 0
-1547 1550 0
-2004 378 2005 0
-1406 1409 0
-971 -201 973 0
-1104 370 1105 0
-745 746 0
-828 -51 830 0
-984 989 0
-1012 253 0
-1019 -69 1021 0
-1090 -75 0
-1353 97 1355 0
-401 -2 0
-268 1574 0
-1721 -287 0
-1148 1152 0
-2421 -188 2423 0
-1751 1756 0
-1852 1853 0
-1211 1212 0
-2443 -192 0
-6 447 0
31 594 0
-628 629 0
-1129 -387 1131 0
-1679 259 1680 0
-1646 237 0
-2377 2382 0
-1798 -306 0
-283 -91 0
-1094 -333 0
-166 165 0
-1449 341 1451 0
-1002 69 1004 0
-1672 1676 0
-1935 1940 0
-1883 -228 0
93 1328 0
-950 386 952 0
-569 571 0
-185 2403 0
-773 229 775 0
-1961 -148 0
395 0
-2381 2384 0
-1730 130 0
-1630 217 0
-2361 2362 0
-1720 1721 0
-2240 2243 0
169 2226 0
-350 349 0
-979 -231 0
-2182 2184 0
-932 933 0
-1034 71 1036 0
-2485 197 0
-430 -4 432 0
-465 -10 0
-150 1988 0
-1556 1563 0
-231 980 0
-273 -69 0
-637 292 0
-702 351 703 0
-845 263 0
-695 696 0
-900 -58 901 0
-996 997 0
-2328 180 0
-1414 -303 0
-975 -203 977 0
-289 -157 0
-1257 1258 0
-1175 -82 1176 0
-1399 1403 0
-1780 134 0
-2103 2104 0
-1987 -345 0
-1689 -126 1690 0
-1735 -128 1737 0
-123 1681 0
-154 153 0
-674 675 0
-1661 1662 0
-1073 -72 1075 0
-553 556 0
-1858 142 1860 0
42 702 0
-1419 1424 0
-1899 -142 1901 0
-2361 -182 2363 0
-1543 373 1544 0
-525 -20 0
-2358 339 2360 0
-1923 1927 0
-670 312 672 0
-359 -131 0
-341 -83 0
-2256 -379 2258 0
-1161 1167 0
181 2357 0
-338 337 0
-438 6 440 0
-707 354 0
-460 311 0
-305 1417 0
-1561 -112 1562 0
-1063 1064 0
96 1352 0
-679 681 0
-1130 -387 0
-2282 -173 2284 0
-610 34 611 0
-719 -351 720 0
-1962 1964 0
-221 -45 0
-1813 336 1814 0
-1589 297 1590 0
36 663 0
-1328 94 1330 0
-1844 209 1845 0
-2135 -161 2137 0
-2170 2171 0
-2480 -349 0
-271 2169 0
59 912 0
152 2006 0
-1024 1028 0
-2302 278 2304 0
-741 742 0
-494 365 495 0
-883 887 0
-80 79 0
-58 921 0
-946 947 0
-1352 97 1354 0
-1921 288 0
-1244 89 1246 0
33 630 0
189 2418 0
-1266 1271 0
-1718 -285 1720 0
-1465 1470 0
4 423 0
-140 1870 0
-504 16 0
-1067 1071 0
-170 2256 0
-264 263 0
-1344 -391 1345 0
-1130 1131 0
385 0
-1833 1834 0
-483 484 0
-2128 339 0
-2450 193 2452 0
-2053 2059 0
-2417 2420 0
104 1449 0
-1129 1132 0
-800 222 802 0
-1628 216 0
-495 366 0
-243 -87 0
-808 809 0
-273 -79 0
-1213 86 0
-2205 -168 0
-3 419 0
-6 5 0
-872 873 0
-2418 190 2419 0
-82 1178 0
-76 1109 0
-1474 1479 0
-2421 2422 0
-793 794 0
261 614 0
-1480 -207 1481 0
-1489 235 1490 0
-992 993 0
-1525 -109 1527 0
61 934 0
-728 365 0
-140 1847 0
-1201 -313 0
-2440 2445 0
-1707 286 1708 0
-550 551 0
216 1631 0
-2488 382 0
-312 0
-1830 -336 1831 0
26 567 0
-13 496 0
-187 2409 0
-1908 -269 1909 0
62 935 0
-1354 98 1356 0
-2120 2126 0
-676 677 0
-2224 348 0
-2167 -164 0
-711 719 0
-878 57 880 0
-135 1818 0
-2066 275 2068 0
-214 213 0
-600 -31 602 0
-2183 -289 0
-176 2311 0
-1162 294 0
-403 -212 0
-1388 284 1390 0
325 1430 0
-1501 1502 0
-1895 269 1896 0
-107 1507 0
-2411 -260 0
-2055 -247 0
-626 -262 628 0
-1059 1060 0
-1588 296 1589 0
-398 397 0
-881 299 883 0
73 1065 0
-2268 2269 0
-854 266 0
-2109 2113 0
-533 24 535 0
-1826 1827 0
-1702 285 0
-659 -292 660 0
-1705 1708 0
-1321 1325 0
-663 37 665 0
-1647 1649 0
-1115 -370 1117 0
-2310 -176 2312 0
-673 314 0
-1279 274 1281 0
-602 603 0
-1965 -318 0
-2151 2152 0
-801 802 0
183 184 219 220 0
-1837 362 0
-1378 -266 1379 0
-22 540 0
-140 139 0
-554 26 555 0
-94 1338 0
-1932 -145 1934 0
-1981 348 0
-2010 2011 0
-9 479 0
-1840 207 0
-551 26 553 0
-864 868 0
-1568 1569 0
-480 485 0
-154 2047 0
180 2331 0
78 1121 0
-2334 -179 2336 0
-1126 1127 0
-415 -3 417 0
-2335 2336 0
-567 27 569 0
-1320 -94 1321 0
-108 1525 0
-324 323 0
-839 52 841 0
-2445 -192 2446 0
-1655 -123 1657 0
-1752 1753 0
-484 487 0
-1995 151 1997 0
-634 36 636 0
-464 465 0
-727 729 0
-50 828 0
-1462 -343 1463 0
-894 -57 896 0
-2255 -170 2257 0
-528 529 0
-2218 2219 0
352 0
-316 1611 0
-563 -26 564 0
-2153 362 0
-1336 392 0
-66 65 0
-1635 1636 0
-648 649 0
-911 913 0
-442 8 444 0
-1092 -331 0
-90 1285 0
-1373 1376 0
-1230 -86 1232 0
-2383 239 2384 0
-745 -367 0
-186 185 0
-665 38 667 0
-1460 -342 1461 0
-1530 -255 1531 0
-1753 134 1755 0
-1917 1923 0
-2217 169 2219 0
-182 2370 0
-23 557 0
-315 -109 0
-1048 -72 1050 0
-1839 1842 0
-1541 373 0
191 2436 0
213 1215 0
-1440 -326 1442 0
-1739 -130 1741 0
154 2032 0
-1717 1724 0
-2037 156 2038 0
-1177 1180 0
-101 1433 0
-67 1017 0
-10 468 0
-54 53 0
-512 221 0
-920 921 0
-1046 -71 1048 0
-1076 1082 0
-223 998 0
41 699 0
-1036 72 0
-118 1609 0
-285 -109 0
-1482 1483 0
-1938 -146 1939 0
-2366 363 2368 0
-2406 2410 0
-814 -224 0
-2267 210 0
-1558 -374 1560 0
-1687 1688 0
-2207 2210 0
-161 2141 0
-1952 317 1954 0
-1886 1887 0
-798 803 0
-238 237 0
64 947 0
203 1142 0
57 908 0
143 1914 0
65 66 231 232 233 234 0
-1118 -371 0
-1234 -88 1236 0
-1621 357 0
-1002 1009 0
-2109 -160 2110 0
58 909 0
-782 783 0
-540 545 0
-1970 148 1972 0
-720 -352 721 0
-1994 150 1996 0
-1428 1431 0
-387 1132 0
-668 311 670 0
-1935 -287 1937 0
-996 -224 0
-1506 1511 0
-933 61 0
-1231 -87 1233 0
-2321 -279 0
-1082 -301 1083 0
-1852 -209 0
-2330 2332 0
-114 1592 0
-787 789 0
-218 2029 0
-1070 302 1071 0
-2273 2278 0
198 0
-1749 -346 0
-211 0
-1811 1814 0
-105 1497 0
185 2382 0
-39 688 0
-2137 2138 0
-615 263 0
-509 510 0
-313 -73 0
-1101 369 0
-188 187 0
-708 709 0
-1515 110 1517 0
194 2467 0
234 1228 0
-1616 1617 0
-1322 -372 1323 0
-2166 -364 0
-2298 2306 0
-2015 2020 0
-984 223 986 0
-1039 281 1040 0
-1475 1476 0
-1288 -92 1289 0
-679 -311 0
-1061 74 1063 0
-2078 2080 0
-2173 166 2175 0
-693 694 0
-1033 1034 0
-1715 1723 0
-1757 375 1758 0
-372 371 0
-892 893 0
-1755 375 0
-749 384 0
-1038 281 0
-675 -37 677 0
-2320 2323 0
175 0
-929 -325 931 0
-1315 1321 0
-1676 259 0
-131 1745 0
-66 971 0
-799 221 801 0
-1878 1881 0
-154 2027 0
-2141 2145 0
-576 577 0
-41 735 0
-833 835 0
-1298 93 1300 0
-157 2101 0
-2061 156 2063 0
-1590 298 0
-2463 -194 2464 0
-1038 1040 0
-990 225 991 0
-114 113 0
-634 635 0
131 1750 0
-1984 1985 0
-245 1350 0
22 531 0
-343 -119 0
-2045 248 0
-2423 -189 2425 0
-1446 -327 1447 0
-760 761 0
-1056 -284 0
-2024 -379 2025 0
-987 224 0
-1222 1224 0
373 1548 0
-1665 124 1667 0
-1706 285 1707 0
-298 297 0
-717 722 0
-1395 286 0
152 0
-2329 2331 0
-1023 -251 0
-438 439 0
-1284 1285 0
-1401 -283 0
-1324 -371 1325 0
3 410 0
-2060 -248 0
-991 226 0
-332 1094 0
-502 503 0
-1779 -378 0
-1887 1895 0
-305 -115 0
-110 1552 0
-2079 -275 2080 0
-1796 -305 1798 0
370 1106 0
-1195 316 0
-40 39 0
-2318 -278 0
-1580 116 1582 0
-2250 2251 0
-1609 1610 0
-622 623 0
-126 1693 0
-1225 1227 0
-1488 1491 0
179 2329 0
-1367 1372 0
-1468 1469 0
-827 828 0
-1699 127 1701 0
-2156 363 2157 0
-2313 2317 0
-2479 -196 0
-160 159 0
-842 848 0
43 747 0
-768 46 770 0
-651 -291 653 0
-920 -58 922 0
-1289 1291 0
105 1482 0
-2235 2236 0
-2376 2377 0
-1645 124 1646 0
-224 223 0
72 1039 0
-1813 1816 0
-143 1905 0
-1382 99 1384 0
-1947 147 1949 0
-505 506 0
-2467 195 2469 0
-778 231 0
-716 -352 0
-1351 1352 0
-1945 -290 0
-967 969 0
-846 850 0
-1210 1211 0
167 2216 0
-1367 -97 1369 0
-855 -52 857 0
1 2 211 212 0
-2261 -380 2262 0
-2160 -361 2162 0
-2382 186 2383 0
-1656 -124 1658 0
-689 690 0
-1294 -275 1295 0
-894 895 0
-2287 -174 2288 0
-1629 216 1630 0
-1725 -287 1726 0
-1308 371 1309 0
125 1697 0
-2443 2444 0
-630 34 632 0
-1938 1942 0
-2138 -337 2140 0
-1114 -369 1116 0
-2053 -246 2055 0
-1797 1801 0
-388 0
-1289 -273 0
110 1537 0
-873 874 0
-1860 1861 0
-1598 1601 0
31 606 0
-1638 -217 1640 0
-1025 -70 1026 0
-887 301 0
-2484 196 0
-1461 -343 0
-2482 -349 2483 0
-873 56 0
-2486 2487 0
-283 -79 0
-2002 152 2003 0
-1198 1199 0
-1461 1463 0
-1306 372 1307 0
-344 1748 0
-2075 -157 0
-676 -37 0
-2353 -398 2355 0
-1911 -270 1912 0
-1539 1543 0
161 2149 0
-1770 -375 1772 0
-1360 1365 0
-294 293 0
-574 -26 576 0
-2356 -400 0
-1764 378 0
-265 -89 0
-180 2350 0
-2369 2370 0
-1645 1647 0
-1985 1987 0
-358 357 0
-1065 74 1066 0
-1601 1604 0
-940 941 0
-1203 1205 0
-859 -54 861 0
115 116 117 118 315 316 317 318 0
134 1759 0
-2031 154 2033 0
-921 -59 923 0
-1412 -101 0
-1958 -146 1960 0
-6 436 0
-498 499 0
-249 529 0
-919 326 0
-253 -79 0
-640 644 0
-897 902 0
-81 1196 0
-2044 247 2045 0
-2247 2252 0
-2272 172 2274 0
-382 -381 -198 -197 -196 -195 0
-36 35 0
-1079 -301 0
79 1154 0
-249 794 0
-1265 1266 0
-1411 -100 0
-1528 1530 0
-1124 1125 0
119 0
-588 -213 0
-1970 1971 0
-333 -103 0
-702 705 0
-530 22 532 0
-275 -125 0
-1708 287 0
-379 2261 0
-1047 -71 1049 0
-2320 -278 2321 0
-271 -155 0
-220 219 0
-1164 82 1165 0
-1171 -81 1173 0
56 877 0
-2315 2318 0
-709 -41 711 0
-1920 287 0
355 1210 0
-2295 2296 0
-1007 1008 0
-1791 306 1792 0
-346 345 0
-2435 2438 0
-2059 -247 2060 0
11 0
-424 425 0
-1491 235 1492 0
-695 41 697 0
-2441 -191 2443 0
-1633 1634 0
-1332 1333 0
-295 -99 0
66 963 0
-1586 116 1587 0
-2479 2480 0
-1673 1677 0
-1083 -302 1084 0
-517 -19 519 0
-749 750 0
-410 4 411 0
398 2347 0
-88 87 0
-30 586 0
-608 609 0
-1262 -253 1264 0
-1958 1959 0
-1660 -238 1662 0
-544 -273 0
-1516 1517 0
-767 -202 0
-93 1320 0
-1132 1134 0
51 839 0
-2036 2039 0
-647 654 0
-1011 1015 0
-2141 -162 2142 0
-2241 2244 0
-1393 284 1394 0
-2245 -350 0
-933 934 0
-2359 339 0
397 0
-272 271 0
190 2431 0
-982 -234 0
-232 981 0
-21 527 0
-994 -223 996 0
-846 264 0
76 1097 0
-1533 -257 0
-1934 -146 1936 0
-614 262 615 0
-392 391 0
-1899 1900 0
-1540 112 0
-1422 104 0
-1438 -325 1440 0
-2464 -321 2465 0
-2026 -154 0
-1204 -314 1205 0
-1700 128 1702 0
-1904 1907 0
-14 13 0
-898 -299 0
-764 -200 766 0
-508 19 510 0
-1358 266 1360 0
-1956 319 0
-2224 2225 0
-1199 1201 0
-171 2281 0
-2346 2348 0
-1140 204 0
-694 699 0
-796 -252 0
-1924 1928 0
-134 133 0
-30 599 0
-1740 -327 1742 0
167 2196 0
-807 -221 809 0
-859 860 0
-99 1402 0
-341 1460 0
-198 197 0
-1913 -272 0
-1767 1768 0
-2476 -195 2478 0
-481 -11 483 0
-1219 87 1221 0
-783 -48 0
-1695 -259 1696 0
-1922 146 1923 0
-2416 190 0
-2108 2112 0
-2083 -277 2084 0
-1184 1185 0
-141 1899 0
-1485 108 1487 0
177 2325 0
-688 -40 0
-1331 390 1333 0
-1232 -87 1234 0
-362 -361 -360 -359 -138 -137 0
-1684 -126 1686 0
-1424 104 1425 0
-1833 138 0
-2291 2292 0
-295 -109 0
-2433 2437 0
178 2326 0
-55 892 0
-2003 377 2004 0
-339 -179 0
-1368 1369 0
106 1483 0
-1247 1250 0
-683 685 0
-153 2046 0
-146 1942 0
-926 927 0
-2276 2277 0
193 2454 0
-2332 310 0
-1542 112 1543 0
-1516 110 1518 0
351 0
-1591 -114 1593 0
-1834 1835 0
-1843 209 0
-1881 -226 1882 0
-2475 2476 0
-1592 1597 0
-1682 -125 1684 0
-2033 2034 0
-972 -201 974 0
-2432 191 2434 0
130 1733 0
-2470 196 0
-1897 271 1898 0
-2480 2483 0
-2096 2100 0
-1110 1111 0
90 1251 0
-2076 2078 0
-49 827 0
-601 -32 603 0
-2219 170 2221 0
-1690 -257 1691 0
-2038 2041 0
-1847 -207 1849 0
-1120 78 1122 0
36 642 0
-1001 68 1003 0
-1250 1253 0
-1576 1577 0
-1995 2002 0
-2175 289 2177 0
171 2264 0
-851 263 852 0
-1435 1436 0
-268 267 0
-1143 205 1144 0
-2149 162 2151 0
-129 1743 0
-2343 2344 0
-2179 -165 2181 0
-609 611 0
-332 331 0
-1555 1556 0
-211 -17 0
121 1625 0
-1876 -225 1877 0
-1552 1561 0
394 1783 0
-472 473 0
-1006 251 1008 0
-2241 -348 2242 0
-594 596 0
-243 1348 0
-1197 1200 0
-2225 349 0
-2291 175 0
-927 -324 929 0
-10 9 0
-1487 235 0
-136 1819 0
-1759 1762 0
-535 273 0
-2085 2086 0
-1098 1099 0
-88 1258 0
-1793 308 0
-74 73 0
95 96 243 244 245 246 0
-1163 295 0
-405 3 407 0
-213 589 0
-1176 1179 0
-535 538 0
-1567 391 0
-414 419 0
-518 -19 520 0
27 570 0
-2348 400 0
-1544 374 0
-194 193 0
-737 -43 739 0
-1962 -148 1963 0
-473 12 475 0
-1068 303 0
-411 229 412 0
23 536 0
-699 42 700 0
-1642 1645 0
-1035 71 0
-981 982 0
-2168 -271 0
-2335 -179 2337 0
-106 1474 0
-100 1405 0
133 1756 0
-1404 -284 0
-1706 1709 0
-784 -48 785 0
-1322 1326 0
-757 201 0
-2266 209 0
-2389 2390 0
-1985 -150 0
160 2118 0
-378 377 0
-1003 69 1005 0
-620 -33 622 0
-1060 1066 0
-1217 216 0
-1882 -227 1883 0
-333 0
-269 -125 0
-1053 -282 1055 0
-77 1128 0
-1260 -90 1262 0
182 2358 0
-867 -263 868 0
-723 724 0
-10 480 0
-249 -31 0
-2283 -173 2285 0
-62 61 0
-582 583 0
-1569 1570 0
-2071 277 0
-2088 2094 0
70 1034 0
-1064 1068 0
197 0
-1224 233 1225 0
-1507 -108 1508 0
-120 119 0
138 1812 0
-1349 1350 0
-1474 -205 1476 0
-1896 270 1897 0
-2305 178 2306 0
-864 -263 865 0
-1364 267 1365 0
-1333 391 0
-1427 1430 0
-1690 1694 0
-246 245 0
357 1212 0
-1467 206 1469 0
-728 730 0
-1091 -76 0
53 0
-1290 1292 0
-1976 345 1978 0
-18 517 0
-1873 1874 0
-1232 1233 0
-1388 1394 0
-1091 1092 0
-225 1881 0
361 0
-882 299 0
-1877 -226 0
-1670 257 1672 0
-1178 -293 1179 0
-484 -329 0
-1799 -307 0
-1855 1864 0
-1416 1417 0
-327 -117 0
-24 558 0
-108 107 0
10 471 0
-974 975 0
-1402 -100 1403 0
-570 28 571 0
-1615 1616 0
-2012 -151 2014 0
-452 -291 453 0
-1820 1821 0
-2264 172 2266 0
177 2305 0
-449 451 0
44 729 0
-2460 2464 0
-1741 1742 0
111 1542 0
-701 352 0
185 2394 0
-819 52 821 0
-980 -232 0
-1359 266 0
-915 917 0
-1178 1181 0
-1698 1703 0
-1158 1159 0
-50 807 0
-653 657 0
-1377 1380 0
-1318 -371 0
-102 1434 0
-716 717 0
-1781 393 0
-153 2026 0
186 2395 0
67 983 0
-995 -224 997 0
-1463 -344 0
-254 253 0
-1099 1101 0
-1186 83 1188 0
61 939 0
-958 960 0
-380 379 0
-458 459 0
-962 66 964 0
-1496 238 0
-341 -39 0
-857 -53 859 0
-1303 1307 0
-1667 1668 0
-1546 1549 0
-1814 337 0
-1834 359 0
-502 -365 0
-2086 2093 0
-1125 389 1127 0
-531 23 533 0
-178 2319 0
-1260 1268 0
-2434 2435 0
-1787 1788 0
43 0
-852 264 853 0
-2211 -320 2212 0
-521 524 0
-1116 -370 1118 0
-2090 2095 0
-1466 205 1468 0
-1429 1432 0
-250 795 0
-565 -300 0
-1157 82 1159 0
-242 241 0
-1045 -70 1047 0
-2174 166 2176 0
-96 1347 0
-2176 2177 0
-225 -79 0
-1991 1993 0
-1593 1594 0
-91 1312 0
3 422 0
-790 -231 791 0
-992 -68 994 0
-1854 1855 0
-1729 129 0
-653 -292 0
-547 -274 0
-1406 -284 1407 0
-182 2362 0
179 2341 0
-1592 -115 1594 0
-2427 -190 2428 0
-1918 1919 0
-2458 2463 0
-1170 1175 0
134 1781 0
-630 631 0
-1150 1153 0
103 1448 0
-1753 1757 0
-319 2213 0
-715 -352 717 0
-1203 -314 0
58 888 0
-451 453 0
-2327 179 0
-168 167 0
-688 689 0
-1273 91 1275 0
-583 -341 0
-297 -127 0
-1648 238 0
-149 1986 0
-2321 2324 0
-1937 1941 0
-2363 2364 0
-2461 -194 0
-2242 2245 0
237 1649 0
-2218 169 2220 0
-352 351 0
60 933 0
28 572 0
-1050 -281 1052 0
-1218 1219 0
-834 836 0
-891 302 0
-1295 -276 0
-1049 -72 1051 0
-1780 1781 0
-2294 248 0
-1922 1926 0
-1535 -258 0
-697 698 0
-2298 178 2300 0
-1713 -127 1715 0
-1674 257 1675 0
-2105 2106 0
99 1391 0
-94 93 0
-875 282 0
-988 225 0
-1863 1868 0
-1166 294 1167 0
-1663 1664 0
-2310 2311 0
-1542 1545 0
-1992 -347 1993 0
-1522 1523 0
-1684 1690 0
-121 1653 0
-1401 1404 0
-1249 253 1250 0
-1967 -319 0
-274 1294 0
-1727 1728 0
-1804 137 1806 0
-2430 2431 0
-74 1090 0
-483 -12 0
-1925 1929 0
-1202 1204 0
-97 1372 0
-2189 168 2191 0
-148 1964 0
-69 1025 0
-1410 -286 0
-740 -365 742 0
-99 1411 0
-2052 2053 0
-681 683 0
-1368 -97 1370 0
-162 2145 0
-1163 1168 0
-1527 1529 0
-1022 1027 0
-1640 -218 0
-2172 2173 0
-1150 -205 0
359 1624 0
-1054 -283 1056 0
-2031 2032 0
-1872 1876 0
-885 889 0
-948 949 0
-1639 -217 0
159 2093 0
-1746 -343 0
-1084 1088 0
-954 -64 956 0
77 1120 0
-1794 1795 0
-643 292 644 0
-1147 1148 0
-102 1414 0
164 2171 0
-2254 382 0
-779 232 0
-2134 2141 0
-1669 126 1671 0
-1574 1575 0
-75 1108 0
-1914 1915 0
-1089 -74 0
-127 1735 0
-1773 1774 0
32 596 0
-1209 355 0
-333 -91 0
-267 -109 0
-2232 -169 2234 0
-275 -113 0
-690 691 0
-1919 287 1921 0
-1126 389 0
396 0
-1128 -78 1130 0
19 513 0
-228 227 0
-1177 -294 0
-1190 313 1192 0
-116 1600 0
-341 -59 0
-2228 348 2229 0
-1824 -335 1826 0
-1316 1317 0
-2103 -159 2105 0
-744 -367 746 0
-2405 -187 2407 0
-1093 -332 0
-510 514 0
-550 25 552 0
-874 875 0
-753 756 0
-1131 1133 0
-886 300 887 0
-1986 -150 1987 0
-2423 2424 0
-432 433 0
-3 430 0
-175 2310 0
-1641 1642 0
-303 -91 0
-1476 1480 0
-1840 1841 0
-194 2476 0
-431 434 0
-2100 310 0
-1398 1399 0
-117 1613 0
-2208 -319 2209 0
-942 367 0
-2288 -227 2289 0
-989 224 990 0
-1955 319 1957 0
-730 366 0
-1524 1525 0
-2252 380 2253 0
-1732 327 0
-1403 1406 0
-1383 1384 0
-635 640 0
-1380 -268 0
-1381 98 1383 0
-1602 1605 0
-2340 -310 0
-1582 1583 0
-941 942 0
-1087 -303 1088 0
-2345 398 2346 0
-1503 1504 0
-21 539 0
-1980 347 0
-1173 -82 0
-2349 2350 0
-1965 1967 0
-545 -24 546 0
-2259 -380 0
-1020 -70 1022 0
-1567 1568 0
-1028 -253 0
-36 675 0
-1997 152 1999 0
-1284 -90 1286 0
-562 565 0
-1649 1651 0
-1892 1893 0
-2124 338 0
-1898 272 0
-386 -385 -384 -383 -44 -43 0
-2091 2092 0
-1450 1451 0
175 2292 0
-2095 308 2096 0
-892 -56 894 0
-142 141 0
-662 663 0
-1018 -69 1020 0
-1122 387 1124 0
-68 993 0
-1430 326 1431 0
184 2377 0
176 2293 0
-2416 2417 0
365 731 0
-1974 1975 0
-987 988 0
-1820 -137 1822 0
-326 325 0
-482 486 0
-1192 1193 0
-1246 90 0
-1077 -74 1079 0
-7 450 0
-1880 -227 0
-2020 -378 2021 0
-1905 -144 1906 0
-2368 364 0
-1754 1755 0
-404 405 0
-81 1175 0
-1383 99 1385 0
-739 -44 741 0
-111 1561 0
99 100 101 102 303 304 305 306 0
-104 1457 0
-2243 -348 2244 0
-1312 1313 0
-2095 2099 0
-121 1633 0
-2158 2159 0
-530 531 0
-2037 2040 0
-339 -167 0
-409 412 0
-1133 1135 0
-1012 1016 0
-2363 -339 0
-1067 302 1068 0
-2426 -279 0
193 2466 0
-2086 159 2088 0
-68 67 0
247 2294 0
-934 935 0
-2360 340 0
-1225 234 0
-1618 -335 0
-1637 1638 0
-1915 1922 0
-8 463 0
-1375 1378 0
11 476 0
-1459 -342 0
-1701 1702 0
-2010 -150 2012 0
-413 414 0
-1954 318 1956 0
-1352 1361 0
-564 -299 565 0
-633 639 0
-1458 -341 0
-826 244 0
-2026 2027 0
-1633 -122 1635 0
-2238 -347 2239 0
-559 -25 561 0
-1957 320 0
-1137 1142 0
-1238 1239 0
-1857 142 1859 0
-965 202 0
-1839 207 1841 0
77 1100 0
-2074 -157 2076 0
-2120 162 2122 0
-456 457 0
-1272 90 1274 0
-2136 -162 2138 0
187 2400 0
-675 678 0
-1801 -307 1802 0
-212 588 0
-1972 149 1974 0
196 2485 0
-2022 -377 2023 0
-1135 -390 0
111 0
-538 274 0
-980 981 0
-1181 -294 1182 0
-2209 2212 0
-853 265 854 0
-1888 1889 0
-2408 2411 0
-439 7 441 0
-1666 1673 0
-1773 -376 0
-1747 1748 0
-603 -241 605 0
-1626 1629 0
-1084 -303 0
-922 -59 924 0
-2090 307 2092 0
-523 -221 524 0
-664 665 0
-800 804 0
-113 1591 0
-2401 259 2402 0
-217 2028 0
-1243 89 1245 0
-202 201 0
-2165 -363 2166 0
-2247 379 2249 0
-2251 381 0
23 548 0
-2279 227 2280 0
-986 224 988 0
45 752 0
-1369 -98 1371 0
-1434 -103 1436 0
-1004 1010 0
-1105 1107 0
24 549 0
-1047 1048 0
-406 407 0
-386 385 0
-542 546 0
-1176 -293 1177 0
353 0
-2077 2079 0
-1173 1174 0
-789 791 0
-1016 254 0
-1251 1254 0
-906 -301 907 0
41 723 0
-590 591 0
-2139 2140 0
-128 127 0
-1998 1999 0
-1357 1358 0
-1877 1880 0
-710 711 0
165 2186 0
-1531 -256 0
-230 790 0
-1790 307 0
-1098 77 0
-1758 376 0
-774 775 0
-1661 -238 1663 0
-1114 1115 0
-1205 -315 0
-2080 2082 0
-1441 -326 0
166 2187 0
79 1136 0
-312 311 0
-627 -263 629 0
-2300 2307 0
-794 -250 0
-1760 1763 0
-2104 -160 2106 0
-606 32 608 0
-1312 -92 1314 0
-2284 2288 0
-1298 1299 0
-2408 -259 0
-1568 392 0
-1701 128 0
-2143 2147 0
-164 2168 0
-2311 -177 2313 0
-516 517 0
-793 -249 0
-65 978 0
-49 806 0
-2076 -158 0
-2387 -185 2389 0
-2065 2066 0
-1040 1042 0
-155 2073 0
-625 -262 627 0
-832 -241 0
-636 637 0
-1623 1624 0
-331 1093 0
-841 842 0
-830 -52 0
-1775 -134 1776 0
-862 -264 0
-174 173 0
-109 1551 0
-1948 1949 0
-416 -4 418 0
-860 865 0
-1224 1226 0
-2047 -155 2049 0
-1807 1808 0
-78 1129 0
-861 -263 0
-808 -221 810 0
-1413 -102 0
-293 -71 0
-1628 1630 0
-777 231 779 0
-331 0
-583 584 0
-2453 2456 0
-1286 1287 0
-463 -9 465 0
-1483 107 1485 0
-1366 -96 1368 0
-166 2184 0
-1109 -77 1111 0
-792 -48 0
49 797 0
-986 990 0
-1243 1248 0
-966 968 0
135 1803 0
-2342 397 2344 0
-2067 275 2069 0
-42 41 0
-1685 -126 1687 0
-908 909 0
-2121 162 2123 0
199 0
153 154 217 218 219 220 0
-2457 2458 0
-1889 1896 0
50 798 0
55 876 0
-1291 1293 0
-1694 -258 1695 0
-893 -57 895 0
-1930 -144 1932 0
-586 587 0
-1369 1373 0
-269 1575 0
-999 -225 1000 0
55 0
160 2097 0
-2206 -319 0
-2329 180 2330 0
-650 651 0
-1893 1898 0
-1353 1354 0
-2229 349 2230 0
-1832 -338 0
-413 -2 415 0
-848 852 0
-1691 -258 1692 0
375 1762 0
-1265 -254 0
-430 431 0
-770 771 0
-2220 170 2222 0
-2151 361 2153 0
-91 1288 0
-1848 -207 1850 0
-1505 -236 0
70 1013 0
-308 307 0
114 1577 0
-910 59 0
-450 452 0
-1127 390 0
-541 -23 543 0
-1741 -327 0
-343 1747 0
-2019 2023 0
-2101 -158 2103 0
-2219 2227 0
-2303 278 0
-529 -250 0
-1502 -235 1504 0
-183 2373 0
-2407 -188 0
-2273 173 2275 0
-954 955 0
-1360 267 0
78 1102 0
-570 572 0
-113 1571 0
235 1494 0
-1862 1863 0
-654 658 0
-528 -249 0
-1076 -74 1078 0
-1327 -374 0
-1600 1603 0
-1782 394 0
-321 -179 0
-4 431 0
-2183 2185 0
-2486 198 0
-1799 1802 0
-1577 1586 0
-555 299 556 0
-1066 301 1067 0
-404 2 406 0
-1138 1139 0
-389 1343 0
-1100 1102 0
106 1465 0
-1304 94 1305 0
112 1545 0
-2085 158 2087 0
-176 175 0
-959 961 0
-2046 2047 0
173 2278 0
-2460 -194 2462 0
-1804 1809 0
-2192 319 2194 0
-899 -300 0
-406 3 408 0
-2450 2451 0
-560 -26 562 0
-1342 1345 0
-1238 -234 1240 0
-1497 -106 1499 0
-394 -393 -392 -391 -112 -111 0
-1737 -129 1739 0
198 2487 0
-657 661 0
-1021 1022 0
191 2448 0
-2483 -350 0
-360 359 0
-880 881 0
-2129 337 2130 0
-1808 1811 0
-1559 -374 0
-137 1828 0
-2269 -209 2271 0
-2268 -172 2270 0
-89 1267 0
-821 241 823 0
-1346 1347 0
-684 -313 685 0
151 2002 0
-461 312 0
-84 1202 0
-150 2011 0
-251 796 0
-1731 130 1732 0
