p cnf 3347 6287
-102 101 0
-3077 344 0
-792 -346 0
-3200 -227 3202 0
-1706 1714 0
-2176 2179 0
-3143 3144 0
-1691 1699 0
-90 1508 0
-619 -297 0
-2481 2482 0
-110 1795 0
-1332 -462 0
-3056 295 0
-2258 2261 0
214 3087 0
-2238 349 2240 0
-2894 -424 0
479 1557 0
-3210 3211 0
-2563 2564 0
-466 2052 0
-1155 -403 1157 0
-851 -400 853 0
-775 345 777 0
-2630 -172 2632 0
-2307 396 0
-1139 1141 0
-3311 -241 0
-2630 2631 0
-1695 -390 1697 0
-1848 1849 0
-1606 1611 0
-789 -345 0
-2183 306 2184 0
-3155 3160 0
-509 -291 0
-1186 1187 0
-2819 342 0
114 1822 0
-3251 234 3253 0
199 200 201 202 353 354 355 356 0
-2192 -305 2194 0
-1026 1031 0
-1988 391 0
-254 1776 0
-2682 2683 0
-1039 -251 0
-1798 -112 1800 0
-24 23 0
-1530 451 0
-365 3113 0
-3218 -230 3219 0
-2506 -385 2507 0
-1389 302 1390 0
-1795 -111 1797 0
-980 389 982 0
-3050 3051 0
-248 -247 -2 -1 0
53 1007 0
-1320 1321 0
-1480 -88 1482 0
-712 32 714 0
-978 52 980 0
-76 75 0
-1606 -313 1608 0
-921 922 0
-3117 3118 0
-1985 1991 0
-1688 1689 0
65 1138 0
-3237 3238 0
-967 -48 969 0
-605 606 0
-444 443 0
-2636 -329 0
-2938 -199 2940 0
-3086 214 3088 0
25 665 0
-2537 2538 0
-1512 1514 0
-2379 -257 2381 0
-1406 1415 0
-3335 -246 0
-2059 132 2061 0
-808 812 0
-1289 -76 1290 0
-3197 398 0
-78 1331 0
-574 -12 576 0
-2893 -423 0
-2284 2287 0
-2905 2906 0
-2604 2605 0
-1880 1882 0
-2465 362 2466 0
-2605 2609 0
36 800 0
-941 -293 942 0
-2725 2729 0
221 0
-2910 2912 0
-1642 1646 0
-1238 1241 0
-2604 -307 0
-696 477 0
-2190 2191 0
-2187 2196 0
-2714 2716 0
183 2782 0
-2656 2657 0
-1267 -386 0
-429 -105 0
-1290 1293 0
-1245 73 1247 0
-113 1858 0
-274 2169 0
-3024 3025 0
-2237 146 2239 0
-2377 2378 0
195 2913 0
-366 365 0
-1832 -303 0
-1952 125 1954 0
-2077 2081 0
-1052 1057 0
-620 -18 621 0
486 2567 0
-463 0
-907 266 908 0
-1373 1379 0
-50 49 0
-1449 374 0
-1357 1360 0
-1677 1678 0
-2906 2909 0
-174 2642 0
-895 896 0
-2270 374 2272 0
-3098 366 3099 0
-1963 360 1964 0
-156 2403 0
-2449 2451 0
-1458 -372 0
-2973 2976 0
237 3273 0
-3158 3159 0
-1317 -78 1319 0
-1585 96 1587 0
-2998 -206 2999 0
-711 31 713 0
-1086 -59 1088 0
-879 -42 880 0
-1749 1751 0
35 779 0
-3298 3300 0
-1703 104 1705 0
-1671 -359 0
-3095 367 0
-1330 1331 0
-1029 1030 0
-2578 2579 0
-1796 1797 0
-1724 -106 1725 0
-1674 1679 0
117 1878 0
-2884 2886 0
-1243 -350 0
-727 735 0
-657 -24 0
-1397 1398 0
48 960 0
-2946 2947 0
-700 -475 0
-962 50 0
-3294 -239 3296 0
-1711 420 0
-1280 418 1281 0
481 1902 0
188 2818 0
-69 1206 0
-1017 -477 1019 0
-1722 -106 0
-2458 161 2460 0
-340 339 0
-579 582 0
-2130 -453 0
-952 -47 954 0
-823 -38 824 0
-3080 3081 0
-663 -459 0
-2791 319 2792 0
-1651 1652 0
-1813 1819 0
-225 3187 0
-2069 134 2070 0
-339 -133 0
-1444 373 0
-2624 330 2625 0
-691 475 693 0
-1240 -349 0
-445 -115 0
179 2718 0
-59 1089 0
-1656 1658 0
-932 935 0
-1252 1253 0
-545 -346 0
-217 3132 0
-2417 318 2419 0
-2180 2183 0
-1718 1719 0
289 0
-902 -462 0
-2485 2486 0
-474 473 0
-1541 -449 0
-661 -400 0
-1195 312 1196 0
-1225 347 1226 0
152 2332 0
-3272 3274 0
95 1569 0
235 3269 0
-1304 1305 0
-1464 -374 0
-1786 1790 0
-826 -383 0
-1263 -384 0
-2853 2854 0
-1657 358 1658 0
-228 3215 0
-1770 1771 0
-2112 -410 0
-1066 1069 0
-3088 215 3090 0
-3024 -435 3026 0
-1570 269 1572 0
-3118 -218 0
-307 -155 0
-915 -266 917 0
-724 725 0
-1853 1857 0
-1206 1210 0
-1172 269 0
-3111 -366 3112 0
-1973 1977 0
-1191 1195 0
-1511 -92 1512 0
-1511 1513 0
-1958 1962 0
-912 -265 914 0
-1385 84 1386 0
-2608 -308 2609 0
-222 3164 0
-2205 2206 0
-2283 2286 0
84 1406 0
-314 313 0
173 2646 0
-1461 -373 0
-2588 2589 0
-2370 257 2372 0
-1505 1506 0
-1370 -82 1372 0
-206 3000 0
-3054 3055 0
-843 844 0
-1325 1329 0
-3175 3179 0
-2242 351 0
-3323 245 3325 0
-2915 487 0
-1692 1693 0
-1402 -303 1404 0
25 26 27 28 415 416 417 418 0
-373 -133 0
-448 447 0
-3153 322 0
-2722 2723 0
-1780 111 1782 0
-54 1017 0
-1334 -464 0
-3073 214 3075 0
-2464 2466 0
-2896 -426 0
-676 -247 678 0
-2072 287 2073 0
-1834 -114 1835 0
184 2767 0
-1356 1359 0
-2825 -187 2827 0
-846 -40 848 0
-2084 -286 2085 0
-578 579 0
-1712 421 0
-112 1806 0
-2127 2128 0
249 1031 0
-116 115 0
-979 52 981 0
-1345 1346 0
-698 699 0
-2894 2895 0
-2987 411 2989 0
-1157 -404 0
-2972 2975 0
-3067 -295 0
-2132 2134 0
-749 34 750 0
-703 705 0
-3277 3278 0
145 2263 0
83 1385 0
-1643 -336 1644 0
-2194 2195 0
-1592 314 0
-214 3084 0
401 1142 0
-2025 432 0
-1490 1493 0
-3019 -207 3021 0
-802 38 804 0
-2257 2260 0
-1232 1236 0
-788 -36 0
-288 287 0
-293 -57 0
-3344 3345 0
-898 -460 0
-3102 3107 0
-1294 1297 0
-1567 -481 1568 0
-3028 3029 0
-2377 -154 2379 0
-3106 3109 0
-2217 -142 2219 0
-1138 1140 0
111 1810 0
-627 -334 0
-837 839 0
-2687 2689 0
-2202 2209 0
-2108 -408 0
-1200 1201 0
-2434 159 2436 0
23 650 0
-1608 -314 0
-1590 313 1592 0
-2206 2211 0
-1393 -82 1395 0
-2721 182 2723 0
-448 0
-755 -33 757 0
-1344 -251 1346 0
-422 421 0
-1787 1791 0
-46 937 0
-500 501 0
-1729 1732 0
-2696 2697 0
103 1703 0
-1035 -249 1037 0
-1894 -452 1896 0
-2368 -470 0
-2757 472 0
-1862 -116 1864 0
-1912 -483 0
-563 566 0
-2759 2762 0
-1450 -86 1452 0
-2798 2807 0
-2879 2882 0
-1859 -115 1861 0
-2821 2823 0
-1246 73 1248 0
-1345 -251 0
-2417 2418 0
-361 -145 0
-1165 -428 0
-2101 2102 0
-90 89 0
-2523 423 0
-240 3299 0
-2179 2182 0
-2180 305 2181 0
-2341 2349 0
-1331 -461 0
-1507 -90 1509 0
-1436 1445 0
-2164 2167 0
-1217 72 1219 0
-2224 -328 0
-2106 2108 0
-3097 365 3098 0
-2617 174 2619 0
-343 -199 0
-1456 -88 1457 0
-1656 358 0
-3251 3252 0
-2071 286 2072 0
-2282 -148 0
-2062 2070 0
-1556 481 0
-739 740 0
-781 346 782 0
-1803 -283 1804 0
-811 381 812 0
-3201 -228 3203 0
-47 967 0
-643 -370 0
-3198 3199 0
-1639 -335 0
81 1381 0
-1062 -58 0
-2036 -431 2037 0
-2826 -187 2828 0
-3318 3319 0
-3052 293 3054 0
-822 826 0
-1709 419 1711 0
-389 -73 0
-3303 3304 0
-795 -347 0
-2829 -341 2831 0
-77 1330 0
-2661 2663 0
-428 1517 0
-2927 -489 0
-327 -121 0
-1174 1175 0
-1774 -254 1775 0
-622 -298 0
-1899 1902 0
-2471 -161 2473 0
-1108 64 1110 0
-1550 -452 0
-1179 1181 0
-2670 2671 0
-3063 -293 0
-178 2688 0
-2751 469 2753 0
-772 36 774 0
-2490 2494 0
-1870 -405 1871 0
-1061 1065 0
-1472 404 1474 0
-2271 2272 0
-2690 -376 2691 0
-3038 3039 0
-2391 2392 0
-905 265 0
-3216 -229 0
-1278 76 1279 0
-3138 -490 3139 0
-953 -47 955 0
-64 63 0
-745 323 747 0
-2351 -433 2352 0
-184 183 0
-2507 -386 2508 0
-3105 3106 0
97 1593 0
-3152 321 0
-692 475 694 0
-2017 130 2019 0
-598 265 600 0
-154 2398 0
-517 323 0
-2463 2465 0
-1515 -428 1516 0
-1409 86 1411 0
-2570 -485 2572 0
-3172 3173 0
-2525 2526 0
-542 -8 544 0
-325 1432 0
-1743 1744 0
-2461 162 2462 0
-2225 2229 0
-796 -346 797 0
-2116 138 2118 0
-1039 1042 0
-2259 -351 0
-1563 1567 0
-2530 2532 0
281 1363 0
-3297 3299 0
-1522 94 1524 0
-2041 466 2043 0
-1043 1044 0
-1216 71 1218 0
-607 17 609 0
-593 -440 0
-624 -19 0
-1810 1811 0
-2577 2578 0
-863 867 0
-1148 1149 0
-824 -381 825 0
124 1951 0
-2024 431 0
-2960 2961 0
-1935 1937 0
-1924 315 1926 0
-123 1966 0
-1958 126 1959 0
-961 49 0
-1293 1296 0
-3332 -245 3334 0
-1379 -283 1380 0
-1667 -357 1669 0
-3181 -224 3183 0
-1050 280 1052 0
-2769 2771 0
-354 353 0
-3193 228 0
-239 3309 0
-2276 375 2277 0
-1251 384 1253 0
-1357 82 1358 0
-689 -418 0
-3102 -215 3104 0
-1360 1363 0
-2212 329 0
-38 37 0
-672 249 673 0
-2312 2313 0
-1563 -480 1565 0
-1475 90 1476 0
-817 -37 819 0
-1665 1666 0
12 568 0
-640 642 0
-1083 301 0
-3239 234 3240 0
-387 -225 0
-1593 98 1594 0
-1728 1731 0
-798 -348 0
-1328 -443 1329 0
-3219 3221 0
-612 297 613 0
-2774 -184 2776 0
-2379 2380 0
-2719 2726 0
-1425 -325 0
-2875 397 2877 0
-2807 -186 2808 0
-2499 2500 0
-1082 301 1084 0
-1423 -86 1425 0
-586 -12 588 0
-1419 328 0
-2562 2565 0
-258 -257 -256 -255 -132 -131 0
-871 -40 873 0
-2444 342 0
-292 291 0
-1318 1319 0
-1554 480 1556 0
-758 -34 0
-2324 2329 0
-1784 1785 0
-3333 3334 0
-2551 2552 0
-1785 284 0
-3224 473 0
-1142 1144 0
-1763 253 1765 0
-1230 -71 1232 0
-2414 317 2416 0
-446 0
-12 587 0
-1205 1209 0
-2618 2619 0
-1259 -74 0
-2849 365 2850 0
-2539 167 2541 0
-215 3116 0
-1510 1512 0
-1452 1453 0
29 709 0
-1865 -406 0
-1999 -127 2001 0
169 170 275 276 277 278 0
-2645 -332 0
-2219 2220 0
-453 2133 0
-803 38 805 0
-328 327 0
-1624 336 0
-2972 -377 0
-2963 377 2964 0
362 2467 0
-12 11 0
-1296 -419 1297 0
-1519 1520 0
-2371 257 0
-1859 1866 0
-204 2995 0
-1639 1640 0
-956 -311 958 0
-857 858 0
-2098 409 2100 0
-1903 483 0
-83 1420 0
-1217 1225 0
-677 681 0
-1966 -124 1968 0
-3233 232 3235 0
-619 622 0
-2226 2230 0
-3193 3195 0
-76 1315 0
-2353 2354 0
-2435 159 2437 0
-1522 1528 0
-2473 2474 0
-128 2027 0
-462 461 0
-2613 -310 0
-2227 -328 2228 0
-1145 404 0
-63 1146 0
-525 526 0
-2074 2075 0
-1387 301 1388 0
-991 992 0
-1758 1759 0
-1431 -327 0
-3307 3308 0
-2391 287 2393 0
-1338 252 1340 0
-117 1906 0
-592 593 0
-1815 303 1817 0
-2141 2142 0
-457 -229 0
-3312 3314 0
-874 880 0
-153 2397 0
-2092 136 2094 0
-1883 1885 0
-2493 385 2494 0
-1754 -445 0
-2169 -275 2170 0
-1961 1965 0
-2548 448 0
-2723 433 2725 0
-2728 2732 0
-1218 72 1220 0
-2668 -353 2669 0
-2603 -307 2605 0
-1321 -442 0
-2922 -487 2924 0
59 60 61 62 333 334 335 336 0
-3033 3035 0
-2205 144 2207 0
-916 -267 918 0
-1044 57 1046 0
-140 2164 0
-1591 313 0
-3202 -228 3204 0
-2395 289 0
-302 301 0
-526 529 0
-2297 150 2299 0
-2615 2622 0
-1428 -326 0
-1560 -94 1562 0
-2858 2864 0
-3042 3043 0
-3066 -294 3067 0
-831 832 0
-1026 249 1028 0
-1564 -480 0
-1843 115 1845 0
-2138 2143 0
-2400 2402 0
-1214 1215 0
-2142 2145 0
-635 370 0
-270 0
-186 2825 0
-2447 2448 0
-436 435 0
-2268 2275 0
-2452 2454 0
-2048 2049 0
113 1818 0
132 2060 0
-1871 -406 1872 0
-287 -139 0
-773 36 775 0
-3347 -492 0
-2272 2277 0
-1362 283 0
-1868 1872 0
-1208 -312 1209 0
-3128 491 0
-1935 -122 1936 0
-2115 2116 0
-1090 1092 0
-1333 1334 0
-686 687 0
-136 0
-1886 -116 1888 0
-2178 2181 0
-38 844 0
-3082 -214 3083 0
-1236 -347 1237 0
-1875 117 1877 0
-897 -459 0
-2018 130 2020 0
-1629 335 1630 0
-2949 2950 0
-2372 258 0
-1555 480 0
-276 275 0
-1559 482 0
259 2770 0
-1467 1468 0
-2104 -136 0
-219 3145 0
-1917 -273 0
-1587 1588 0
-1604 -98 1606 0
-2356 468 2358 0
-74 1284 0
-322 -321 -222 -221 -220 -219 0
-3079 3082 0
-2595 308 2596 0
-106 1746 0
-1740 444 1742 0
-2374 2376 0
-1650 1653 0
5 530 0
-2273 148 2274 0
-1188 1189 0
-2808 -319 2809 0
-99 1641 0
-430 2036 0
-645 650 0
180 2719 0
-2860 -365 0
-1434 -328 0
-578 12 580 0
-120 1932 0
52 992 0
-2961 2966 0
-2921 -196 2923 0
-544 -345 0
-410 409 0
-985 -51 0
-2362 -467 2364 0
-2500 2506 0
-2684 2685 0
-2445 -158 2447 0
-2426 2428 0
-2022 2023 0
-176 2683 0
-1518 -430 0
-2504 2508 0
-3333 -245 3335 0
-1394 -83 1396 0
-1147 -65 1149 0
96 1570 0
-1260 1262 0
-1301 78 1303 0
-80 1344 0
-3052 3053 0
-1071 -281 1072 0
-337 1947 0
-3091 3098 0
-347 -47 0
-991 52 993 0
-1651 101 0
-540 541 0
-2089 2090 0
-1604 1610 0
-2053 -468 0
-2698 180 2700 0
-78 77 0
-1847 1852 0
-1068 -280 1069 0
-2422 -157 2424 0
-95 1601 0
-1451 -87 1453 0
-3117 -217 0
-3016 437 3017 0
-2902 447 2904 0
-1690 1691 0
-331 -211 0
-607 608 0
46 944 0
-1374 1375 0
-1727 -419 1728 0
-2923 2924 0
-1209 1213 0
-121 1935 0
-1976 1980 0
-345 -25 0
37 831 0
-459 664 0
-1508 -91 1510 0
-1514 1516 0
-790 793 0
-250 249 0
-1757 1758 0
-1876 117 0
-1398 -301 1400 0
-1923 122 1925 0
-1441 1442 0
-3291 3292 0
-2990 2991 0
174 2647 0
-3126 3130 0
239 3301 0
-2946 -201 0
-1319 1324 0
-2286 2289 0
-445 -135 0
-2553 -168 2554 0
-1882 1884 0
-1046 58 1048 0
-1162 1163 0
-1644 1648 0
-3327 457 0
-211 3078 0
-155 2421 0
-384 383 0
-2658 2659 0
-1229 1230 0
-1845 116 1847 0
-1123 -64 0
-2859 -364 0
-2294 2303 0
-1538 -94 1540 0
-2236 2244 0
-1292 1295 0
-1490 -404 1491 0
-3245 3249 0
19 628 0
-2841 2844 0
-341 -173 0
-2298 2305 0
-3026 3027 0
-2033 -430 0
205 3006 0
-1768 255 0
-514 515 0
-2195 -307 0
119 1919 0
-2063 2064 0
-2603 2608 0
-52 51 0
-634 369 0
-383 -49 0
-2822 343 2823 0
-1359 1362 0
-1113 371 0
-172 171 0
-2485 164 2487 0
-293 -119 0
-897 898 0
-455 -181 0
-2126 2129 0
-722 299 723 0
225 3190 0
-639 641 0
-207 3038 0
-43 931 0
-3254 236 3256 0
-3277 -236 3279 0
-1426 1429 0
-2679 377 2681 0
-2975 2978 0
-3218 3220 0
-677 -248 679 0
-2513 2514 0
-764 767 0
-3050 212 3052 0
-592 -439 0
-2313 2316 0
42 867 0
-1736 108 1738 0
-134 2102 0
-2626 329 2627 0
-1786 112 1787 0
-2510 -386 2511 0
-1955 1960 0
-999 -52 1001 0
-306 305 0
-1089 1091 0
-2075 2080 0
-1987 391 1989 0
-147 2284 0
-2580 2581 0
-1371 1378 0
-3131 492 0
-1798 1799 0
-1976 -360 1977 0
-425 -205 0
-3032 471 0
-1878 118 1879 0
67 1166 0
-3175 226 3177 0
-977 51 979 0
-1136 1137 0
-1339 252 1341 0
-2044 467 0
-2233 144 2235 0
321 3153 0
-534 8 535 0
-3141 220 3143 0
-1141 1143 0
-1473 404 0
-2690 2692 0
-2632 2633 0
-1014 479 1015 0
-136 2126 0
-2358 469 2360 0
-1914 -120 0
-2752 2753 0
162 2463 0
-1499 92 1501 0
-2206 327 2208 0
-688 -417 0
-141 2196 0
-2359 469 0
170 2583 0
-2233 2234 0
-1371 -281 1373 0
-827 -381 828 0
-1045 57 1047 0
-92 1536 0
-2640 -330 2641 0
-1648 -338 0
-1270 1271 0
-925 291 927 0
-637 -21 639 0
-26 25 0
-2583 171 2585 0
-209 3058 0
-78 1326 0
-927 292 929 0
-146 145 0
-349 2260 0
-2280 -147 2282 0
-2585 172 2587 0
-871 872 0
-709 30 711 0
-180 2712 0
145 2243 0
-1708 419 1710 0
-1134 64 1136 0
-2223 -327 0
43 919 0
-2606 -172 2607 0
-1307 441 1308 0
-2182 2185 0
-2425 2427 0
-3290 387 3292 0
-3134 3135 0
-75 1314 0
-2298 393 2300 0
-2487 2488 0
-1705 1706 0
-281 -67 0
-2876 397 0
-1751 -443 1752 0
-2345 -432 2347 0
69 1214 0
-2550 2553 0
-936 -291 0
-280 279 0
-1107 64 1109 0
-1588 1594 0
-1772 1773 0
-853 -401 0
-1595 314 1596 0
-2539 2540 0
-825 829 0
-1066 -280 0
-1198 -68 1200 0
-1068 1071 0
-129 2030 0
-2536 -424 0
-95 1577 0
-1592 1596 0
-1004 -449 0
-1838 -303 1839 0
-3148 -278 0
-468 0
258 2375 0
-3316 -414 0
-2664 2666 0
-1193 1197 0
-1135 1138 0
-2742 2746 0
-244 3332 0
-1025 56 1027 0
-1771 -253 1773 0
-1960 1964 0
-1795 1802 0
-744 323 746 0
-2160 275 2162 0
-514 5 516 0
-1240 1243 0
-883 -439 884 0
-2207 2208 0
-1560 1561 0
-2789 2792 0
-535 537 0
-1017 1022 0
-57 1064 0
-2327 2328 0
185 2812 0
-215 3107 0
-1244 1245 0
-976 51 978 0
-1715 420 1716 0
-3056 3057 0
-519 323 520 0
-2118 453 2120 0
-674 -26 676 0
-845 846 0
-291 -29 0
-3021 -208 3023 0
-2357 468 2359 0
-2841 363 0
77 1306 0
1 493 0
-3100 368 0
-2835 -344 0
-2490 385 2491 0
-1694 1695 0
-2631 -173 2633 0
-1883 453 0
-3285 238 3287 0
-450 449 0
-3228 3229 0
-2219 -143 2221 0
-3078 -212 3080 0
-2373 258 2374 0
-667 247 669 0
-2281 2285 0
-2512 -388 0
-3161 355 3162 0
-2466 2468 0
-979 980 0
-2279 -147 2281 0
-3295 3296 0
-2718 180 2720 0
-501 291 503 0
-623 -18 0
-2843 363 2844 0
-2533 2535 0
-355 2951 0
-2412 158 2414 0
-700 701 0
-751 324 752 0
17 18 19 20 333 334 0
-1365 284 0
-2026 -128 2028 0
-1633 -98 1635 0
-200 2946 0
-3137 -491 0
-1452 -87 1454 0
-1933 1934 0
-3310 -241 3312 0
-2398 -155 2400 0
-1938 1940 0
-1584 -272 0
-509 511 0
-2301 2302 0
-2000 2001 0
-1354 1358 0
-3030 3031 0
-59 1097 0
-1601 1602 0
-2614 172 2616 0
-819 820 0
-291 939 0
-408 2111 0
-3035 3037 0
-2380 -258 2382 0
-73 1283 0
-154 2378 0
-1679 104 1680 0
-1202 1203 0
-2642 -329 2643 0
-2373 2375 0
-2877 398 0
-610 297 0
-377 2979 0
-2435 2436 0
-1069 -281 0
-279 1070 0
-424 423 0
154 2386 0
-2959 378 2961 0
-339 2453 0
-1772 -253 0
-2765 -472 0
-3338 -457 3339 0
47 947 0
-1989 392 0
13 582 0
-1048 279 1050 0
-96 1578 0
-953 954 0
-376 2692 0
-1720 1721 0
-2812 186 2814 0
-470 2764 0
-158 0
-554 555 0
-3231 263 0
-2103 2104 0
-405 -103 0
-2981 -380 0
-3274 3276 0
-674 675 0
-3010 208 3011 0
-2870 2871 0
-520 324 0
-2592 308 2593 0
-2108 2110 0
141 2177 0
-3278 -237 3280 0
-741 742 0
-2937 2938 0
-1990 1994 0
-726 727 0
-1208 1212 0
-1864 -405 0
-264 263 0
44 904 0
-218 3119 0
-1975 1979 0
-1513 1515 0
-1403 -303 0
-2551 -167 0
-3062 3064 0
-74 1262 0
-1575 1576 0
-930 294 0
86 1436 0
-293 3066 0
183 2766 0
-3245 -234 3247 0
-2133 -454 2134 0
-2832 -342 2834 0
-2 505 0
-1580 1582 0
-1176 1177 0
-875 876 0
-537 346 0
-1406 85 1408 0
-584 439 585 0
-1654 357 0
-2113 136 2115 0
-2409 2410 0
-645 23 647 0
-398 397 0
-2013 -394 0
-1717 422 0
-2672 2673 0
-1144 403 1145 0
-1189 312 0
-816 823 0
-157 2445 0
-1343 -80 1345 0
-3269 236 3271 0
-293 -183 0
-865 440 866 0
-2492 2496 0
-927 928 0
-1376 -82 1377 0
-3027 -437 3029 0
-81 1393 0
-903 44 905 0
-2777 -260 2779 0
-2323 150 2325 0
-2667 -353 0
-1580 -270 0
-2202 143 2204 0
-3114 -367 3115 0
-2467 363 2468 0
-1184 69 1186 0
-66 65 0
-648 649 0
140 2156 0
-595 475 0
-2584 171 2586 0
-186 185 0
-279 -43 0
142 2202 0
-469 -167 0
-437 -215 0
-1112 370 0
-163 2505 0
-595 596 0
-617 -18 619 0
-3040 -471 3042 0
-2845 363 2846 0
-555 -9 557 0
-1482 1483 0
-238 237 0
-2974 2977 0
-1802 -112 1803 0
-1532 450 1533 0
147 2293 0
85 1415 0
-3105 -216 0
-1261 -383 0
-315 1939 0
-264 -263 -232 -231 0
-799 36 801 0
-839 400 840 0
-1799 -283 1801 0
125 1982 0
-766 -324 767 0
-1106 63 1108 0
-1728 -420 1729 0
-1813 114 1815 0
-1526 450 0
-1693 -389 1695 0
-1594 313 1595 0
-199 2945 0
-2579 2580 0
-1150 1151 0
-849 850 0
-3346 3347 0
-170 2599 0
-3282 -367 3284 0
-1937 1939 0
-3166 3170 0
-372 371 0
-3108 3111 0
-508 510 0
-94 1547 0
-1679 1682 0
-2646 2647 0
-1807 -284 1808 0
-1984 1985 0
-1909 -482 1911 0
-857 41 859 0
-1037 1041 0
155 2409 0
-1804 1808 0
-2771 2773 0
-1746 1749 0
-2738 -182 2740 0
-690 28 692 0
-502 503 0
-153 2377 0
-40 39 0
-313 -83 0
-160 159 0
-1758 -463 0
-1388 302 0
-1351 1352 0
-613 298 0
-2196 -142 2197 0
-285 2086 0
-387 -177 0
-575 -415 577 0
-3005 -414 0
-2181 2184 0
-1510 -92 0
-2632 -173 2634 0
-2201 142 2203 0
-9 570 0
-2001 2007 0
-756 757 0
-2952 2953 0
-3246 -234 0
-1696 -390 0
-2153 -485 2154 0
-294 293 0
-3273 3275 0
116 1854 0
-3272 238 0
-1396 -84 1398 0
-1301 1307 0
-3228 -473 0
-3335 3336 0
-395 -163 0
-3320 3321 0
-830 -384 0
-2663 -351 0
-3039 -471 3041 0
-2992 413 0
-2047 -465 2049 0
-2315 2318 0
6 531 0
-500 4 502 0
-1383 83 0
-346 345 0
-2672 177 2674 0
-594 14 0
-2620 2621 0
-948 950 0
-776 346 778 0
-1060 -57 1062 0
-2740 2741 0
-243 3331 0
-1478 405 1479 0
-1102 -335 0
-2221 2222 0
-549 551 0
-1382 83 1384 0
-1258 1259 0
-534 536 0
-268 1180 0
-156 0
-14 13 0
-1783 1788 0
-3120 -456 0
156 2410 0
-3332 3337 0
-969 -49 971 0
-1078 299 1080 0
-134 133 0
-2106 -407 0
-859 860 0
-349 -85 0
-625 -20 0
-2874 2875 0
-1961 361 0
-2228 2232 0
-2643 -330 2644 0
-1203 1208 0
-1552 479 1554 0
-424 2895 0
-2558 -447 0
-2598 -170 2600 0
-1508 1511 0
-2475 2476 0
-2014 128 2016 0
-3275 367 3276 0
-3242 3243 0
-269 -79 0
-2186 -140 2188 0
-558 -10 560 0
38 832 0
-2658 -174 2660 0
-1455 1458 0
224 3173 0
-268 267 0
-993 994 0
-1755 -445 1756 0
-357 -71 0
-1049 279 1051 0
-793 796 0
-3000 -411 3001 0
-1760 1761 0
-1275 1281 0
-3309 3310 0
189 2842 0
240 3302 0
-2527 2528 0
-1638 1643 0
-1098 1099 0
-1519 92 1521 0
-2741 -434 0
-2487 385 0
-3314 3316 0
-2289 2292 0
-630 21 632 0
-3283 -367 0
-2062 134 2064 0
-770 35 772 0
-987 -52 988 0
-1710 1716 0
-3001 -412 0
-2546 447 2548 0
-2865 -366 0
-2731 434 2732 0
-3159 355 0
-1733 106 1735 0
-108 107 0
-2844 2847 0
-833 834 0
-2694 178 2696 0
4 513 0
-859 42 861 0
475 0
-3149 3150 0
-1678 1681 0
-1945 -124 0
-1955 359 1957 0
-1362 1365 0
-715 718 0
-251 1347 0
-2404 -288 0
-235 3277 0
-1667 1668 0
-2149 2153 0
-1953 126 1955 0
-3216 3217 0
-778 783 0
-3294 3297 0
-2454 2456 0
-1429 1432 0
-242 241 0
-2978 2981 0
-1919 120 1921 0
-967 968 0
-2305 394 2306 0
-587 -13 589 0
-2856 2863 0
-523 -5 525 0
-1496 91 1498 0
-3283 3284 0
-2501 2502 0
-787 791 0
-2778 -260 2780 0
-421 -135 0
-177 2706 0
-1420 -84 1422 0
-1554 1558 0
-3189 -380 0
-419 -89 0
-1092 1094 0
-1335 1336 0
-688 689 0
-3297 -240 3298 0
-132 2075 0
-2725 434 0
-2775 -259 2777 0
-2524 424 0
-152 2362 0
-3184 -226 3186 0
-1921 1922 0
-1288 -417 0
-345 -19 0
-459 899 0
-526 -323 0
-3260 -234 3262 0
229 3222 0
-2295 149 2297 0
-1109 369 1111 0
200 2935 0
-513 518 0
-747 324 0
-1219 347 1221 0
-1988 1989 0
-517 520 0
-445 -129 0
-459 -27 0
-2589 308 0
-1989 1993 0
-1175 -267 1177 0
-241 3313 0
-2864 -365 2865 0
-299 1093 0
-1469 1470 0
31 739 0
-2564 486 0
-3018 3019 0
-2367 -469 2368 0
-293 -139 0
-2983 205 2985 0
-1589 1590 0
-3157 224 3159 0
-72 1257 0
-104 1719 0
-2568 488 0
-2818 341 2819 0
-2965 379 2966 0
-43 911 0
-3140 -492 0
-1694 -389 1696 0
-1109 1116 0
157 2433 0
-797 -347 798 0
-1543 -94 1544 0
-1472 1478 0
436 3016 0
-1414 1419 0
29 30 279 280 0
-2853 -189 2855 0
-2423 2424 0
-412 411 0
-2403 -287 2404 0
-1032 251 1033 0
-2200 -308 0
-3190 3191 0
-1808 -285 1809 0
-828 -382 829 0
-2950 -355 0
-311 -59 0
-2428 2430 0
-2024 2025 0
-1188 311 0
9 562 0
-201 2967 0
-1481 1486 0
-3195 3197 0
-1282 420 0
-1910 -482 1912 0
-1528 1532 0
-542 543 0
-2498 -163 2500 0
-1124 1127 0
-2091 2092 0
-662 663 0
-494 247 0
-2761 -470 0
-1842 114 1844 0
-3324 3325 0
-3147 -277 0
-3326 246 0
-2248 -144 2250 0
-1565 -481 0
-1595 1599 0
-609 610 0
-3135 -490 3137 0
-111 1826 0
-2847 365 0
-2498 2505 0
-2925 2926 0
-2354 467 2356 0
-1680 389 1681 0
-451 -107 0
-878 -440 0
-2745 2749 0
-632 22 634 0
-2755 471 2757 0
-1443 1444 0
186 2813 0
-2992 2993 0
132 2055 0
-1969 -126 1971 0
-1401 -302 1403 0
-438 -437 -244 -243 -242 -241 0
-2173 141 2175 0
-1016 -54 1018 0
-2257 -349 2258 0
-906 908 0
-743 34 745 0
-1760 -465 0
-946 48 0
-2397 2398 0
-386 385 0
-3017 438 0
-3320 437 0
-1941 -317 1942 0
93 1551 0
-668 672 0
-1231 1232 0
-566 12 567 0
-746 752 0
-932 -45 934 0
209 0
-2402 2404 0
-2909 -196 2910 0
-31 734 0
-1998 1999 0
-2420 320 0
-915 916 0
-2222 2227 0
-703 -477 0
-1818 1822 0
-2557 -446 2558 0
-2185 308 0
-2021 430 2023 0
-804 381 806 0
-1277 419 0
-1298 1299 0
-3151 222 0
-516 517 0
55 1043 0
-2065 2066 0
153 2369 0
-2783 185 2785 0
-636 637 0
-2832 2833 0
-174 173 0
-1102 1103 0
40 856 0
-860 865 0
-641 643 0
-1373 -282 1375 0
-1619 99 1621 0
-1354 82 1356 0
-2143 484 2144 0
-1138 66 1139 0
-2693 -378 0
-2781 -262 0
-2899 2900 0
126 1983 0
302 1391 0
-1374 -282 0
-918 -268 0
-779 36 780 0
-1936 -315 0
-2234 2243 0
-325 -47 0
-308 307 0
-1537 1538 0
-2342 -152 2344 0
-235 3266 0
363 2848 0
-3271 237 0
-2410 157 2412 0
-1632 338 0
-62 1100 0
-2329 2332 0
-3317 242 0
-1271 76 1273 0
-1440 1447 0
-360 359 0
-1143 1145 0
-333 -33 0
-2937 -198 2939 0
-2634 2635 0
208 3031 0
-2588 307 0
-116 1887 0
-727 -32 729 0
161 2461 0
-1972 1973 0
-1200 -69 1202 0
-2483 163 2485 0
-2685 -178 0
87 1465 0
-889 890 0
-2502 -385 2504 0
-3267 -331 3268 0
-253 1774 0
-3107 -216 3108 0
-103 1718 0
-2446 -159 2448 0
-3198 -226 3200 0
-1272 1273 0
-3252 235 3254 0
-1873 -408 0
-2675 375 2677 0
-2730 433 2731 0
-28 27 0
245 3340 0
-1257 -73 1259 0
-148 147 0
-742 34 744 0
-2794 320 2795 0
-159 2469 0
-2456 -342 0
-1239 -348 1240 0
-2102 2105 0
-1339 1340 0
-121 1943 0
-1765 254 1767 0
-2109 -408 2110 0
-413 -215 0
-1557 480 1558 0
-389 -87 0
-937 -291 938 0
-232 3243 0
264 0
-246 3345 0
-3194 3196 0
-166 2550 0
-1273 417 1275 0
-423 2894 0
193 2897 0
-2932 200 0
-1707 1708 0
-2175 142 0
-1702 -392 0
-1811 113 1813 0
-624 625 0
-2173 2174 0
-1915 -271 0
-162 161 0
-2998 3000 0
-1284 1289 0
-1527 1531 0
-2181 306 2182 0
-282 281 0
-2447 -159 0
-1993 1997 0
-321 -199 0
-2541 2542 0
-1516 1518 0
-1497 91 1499 0
-1112 1113 0
-3065 3067 0
-1594 1598 0
235 3257 0
-2254 -146 2255 0
-1043 56 1045 0
-172 2610 0
-1101 -334 0
-334 333 0
-1900 481 0
-2666 2668 0
-111 1802 0
-506 -3 0
-936 938 0
-1468 90 1470 0
-1719 1724 0
-2884 -395 2885 0
-2486 2491 0
-1118 372 0
-1946 1947 0
-547 9 549 0
-2989 412 2991 0
-3339 -458 0
-559 -381 561 0
-3137 3140 0
-3207 229 3209 0
-1887 -117 1889 0
-2409 156 2411 0
-1246 1247 0
99 1625 0
61 1104 0
-2396 290 0
-1391 303 1392 0
-2 1 0
-379 -215 0
-2033 2035 0
-3156 223 3158 0
-122 121 0
-1833 1837 0
-847 848 0
-960 49 962 0
-1899 481 1901 0
-168 2570 0
135 2113 0
-3162 356 0
118 1880 0
15 597 0
-3230 3231 0
-412 3004 0
-648 24 0
-1463 -373 1464 0
-1836 -304 1837 0
-136 135 0
-3099 367 3100 0
-256 255 0
-67 1174 0
148 2294 0
-1793 286 0
-2330 2333 0
-553 382 0
-2515 2516 0
-2158 274 2160 0
-54 1005 0
-85 1426 0
-856 41 858 0
-512 4 514 0
-2659 -175 2661 0
-2499 -163 2501 0
-651 399 652 0
-2805 -320 0
-157 2425 0
-202 2948 0
-2582 2583 0
-2702 2703 0
101 1673 0
-3184 3188 0
-151 2361 0
-1140 401 1141 0
-1940 1942 0
-767 -325 768 0
-2878 -190 2880 0
181 2726 0
-1220 1221 0
-2673 178 2675 0
164 2493 0
-1572 270 1574 0
-61 1099 0
-247 680 0
66 1140 0
-3236 3240 0
-96 95 0
-3124 489 3126 0
-821 822 0
-429 -115 0
-1577 -96 1579 0
-194 2906 0
-1467 89 1469 0
-1287 1288 0
-1423 1427 0
-854 -402 0
-2836 2837 0
-2054 2055 0
-1819 303 1820 0
-423 -179 0
-511 -292 0
-2772 261 2773 0
-45 935 0
-2046 -130 2048 0
-1185 1191 0
-1162 -66 1164 0
-2437 2438 0
147 2273 0
-570 -10 572 0
-39 871 0
-2195 2200 0
-885 -441 886 0
-1241 -348 1242 0
-2607 -307 2608 0
-3204 3205 0
-2486 385 2488 0
-1796 -111 1798 0
-110 109 0
-1600 316 0
-2576 -488 0
-988 -389 0
-3273 238 3274 0
-2159 274 2161 0
-2209 144 2210 0
-230 229 0
-3238 295 0
-3295 -239 0
-955 956 0
-1722 1723 0
-2020 429 2022 0
-3271 3272 0
-1842 1843 0
-1411 325 1413 0
-1542 1546 0
-1714 419 1715 0
-1196 313 1197 0
-1790 283 1791 0
-1652 102 0
-2872 2873 0
-3083 -343 0
-41 895 0
-2147 -483 2149 0
-2601 -172 2603 0
-1609 1613 0
-3288 240 3290 0
-2939 2940 0
182 2751 0
-190 2879 0
-638 -21 0
-2699 409 2701 0
-725 734 0
-2912 -448 0
-1125 -64 1126 0
-1977 1981 0
-1848 405 0
-2850 366 0
-1515 1517 0
-1204 -311 0
-1512 -427 0
-1877 118 0
-3064 3066 0
-3191 227 3193 0
-3006 3007 0
-1257 1260 0
-610 613 0
-772 780 0
-1577 1578 0
-2656 353 0
-211 3062 0
-2997 -206 0
-993 53 995 0
-1477 404 1478 0
-2344 2345 0
-417 -39 0
-1562 1563 0
-385 -87 0
-557 -10 559 0
-205 2998 0
-3002 -412 3003 0
-899 -460 900 0
-1582 1584 0
-15 614 0
-2885 -396 0
-750 323 751 0
-2631 2638 0
-2495 387 2496 0
10 563 0
-2411 2412 0
-3008 207 0
-3106 -365 0
-1386 1388 0
-400 399 0
-339 -143 0
-733 -299 0
-1615 -315 1616 0
-212 3079 0
-945 47 0
-3256 3259 0
-2075 -133 2077 0
-327 -133 0
-429 2034 0
-728 -32 730 0
-204 203 0
-297 -25 0
-987 989 0
-1711 1712 0
-79 1366 0
-929 930 0
-1754 1756 0
402 1144 0
-352 2668 0
-1696 1697 0
-1049 1050 0
-1622 335 1624 0
-1816 1817 0
-2575 -487 0
-3150 221 0
-1578 1581 0
-2740 -433 0
-3132 -218 3134 0
-535 345 0
-720 299 0
-208 3039 0
-2913 2914 0
-708 -280 0
-44 932 0
-1484 1485 0
-1315 -77 1317 0
-305 -119 0
-1950 1951 0
-2958 377 2960 0
-2976 2979 0
-213 3082 0
-1466 1475 0
-1410 325 1412 0
-2535 -423 2536 0
-784 785 0
-1116 370 1117 0
-1551 1552 0
-769 770 0
-1055 280 1056 0
-359 -113 0
-531 534 0
-2688 -375 2689 0
-2317 -393 2318 0
-851 852 0
-2080 2083 0
39 835 0
-1944 -123 0
-3037 474 0
-2385 2386 0
-655 -23 657 0
-374 373 0
-42 883 0
-1603 1604 0
-3110 3113 0
-1681 1684 0
-504 -2 506 0
-656 660 0
-1297 -420 0
-1986 1987 0
-718 721 0
-1666 -357 1668 0
-903 904 0
-3108 -365 3109 0
-3206 228 3208 0
-3177 3180 0
231 3233 0
-2936 310 0
-504 505 0
43 903 0
-2641 -331 0
-1086 1089 0
-685 -28 0
-2132 -454 0
-2578 -275 0
-680 -248 681 0
-2780 -261 0
-842 402 0
-1737 1738 0
-1674 103 1676 0
321 0
-959 48 961 0
-2640 2644 0
-2764 -471 2765 0
-239 3297 0
-1693 1700 0
-2464 362 0
-403 -73 0
71 1244 0
-2966 380 0
230 3223 0
-455 3120 0
207 3010 0
-1645 -335 1646 0
-638 639 0
-3012 3014 0
-758 759 0
-2954 2955 0
172 2615 0
-119 1914 0
-1525 1526 0
-2007 2011 0
109 1778 0
-743 744 0
-27 685 0
-740 749 0
-782 347 783 0
-2370 2373 0
-2229 -327 2230 0
-32 755 0
-1137 66 0
-1827 1834 0
-1902 482 1903 0
-293 -67 0
-505 508 0
-2587 307 2589 0
-855 40 857 0
-3322 3323 0
-2489 164 2490 0
-2317 2320 0
-2821 343 0
-2359 2360 0
-348 347 0
-1149 -66 1151 0
-2422 2425 0
-347 -61 0
-2364 2366 0
-935 937 0
-125 1974 0
-877 878 0
-3265 -331 0
-1067 -279 1068 0
-177 2686 0
-465 1761 0
-1299 1306 0
-1002 1004 0
-16 15 0
-1248 74 1250 0
-1309 443 0
-373 -101 0
-2123 455 0
-3125 489 3127 0
-1385 1387 0
-3059 -211 3061 0
-2766 184 2768 0
-2876 2877 0
13 0
-1127 1130 0
-665 666 0
-347 1241 0
-2543 445 2545 0
-2083 -285 2084 0
-3244 3245 0
-2161 2162 0
-496 2 498 0
-2210 327 2211 0
-732 733 0
-270 269 0
-1499 1500 0
10 552 0
-2806 2811 0
-795 798 0
-1757 -108 0
100 1650 0
-3111 3114 0
-957 -311 0
-3018 -206 3020 0
-90 1489 0
-799 800 0
-1692 -104 1694 0
-2249 -145 2251 0
-397 -203 0
-322 321 0
-1349 -253 1350 0
-1210 -311 1211 0
-1360 281 1361 0
171 2590 0
-1962 359 1963 0
133 2069 0
-201 2947 0
-383 -63 0
-778 347 0
-2439 339 2441 0
-293 -133 0
-455 -195 0
-1269 1278 0
-2700 409 2702 0
-2405 2407 0
-900 -461 0
-572 573 0
-2079 2082 0
190 2845 0
-1756 -446 0
-2846 2849 0
-1821 1825 0
154 2370 0
-1546 -451 0
-2327 152 0
-1059 1064 0
-1705 105 1707 0
-1229 -70 1231 0
-3103 -215 3105 0
-717 720 0
-984 -51 986 0
-417 689 0
-1669 1670 0
244 3323 0
-2386 155 2388 0
-1708 1715 0
-791 -345 792 0
-1676 104 1678 0
-124 123 0
-1743 445 0
-706 707 0
-628 20 630 0
-1431 1434 0
-244 243 0
-3308 414 0
-2318 2321 0
-3285 3286 0
-2503 2504 0
-148 2287 0
-773 774 0
-3268 -332 0
-3241 296 0
-2618 174 2620 0
-2979 -378 2980 0
-2542 445 2544 0
-303 -95 0
-1292 -417 1293 0
-1575 271 0
-296 295 0
-735 -297 736 0
-3031 471 3033 0
-1923 1924 0
-898 900 0
-1908 1909 0
-939 -292 940 0
-137 2129 0
-2226 -327 2227 0
-3157 3161 0
-693 476 695 0
-2199 -307 2200 0
-189 2878 0
88 1466 0
-3130 491 3131 0
-640 -22 641 0
-1980 -361 1981 0
-1991 1995 0
-1124 -369 0
-2250 -145 2252 0
-1028 1032 0
-1811 1818 0
-2540 168 2542 0
-2348 -152 2349 0
-230 3227 0
-84 83 0
-566 568 0
-2762 2764 0
-3324 245 3326 0
-1933 -121 0
-2178 305 2179 0
-1815 1820 0
-551 553 0
-2824 2825 0
-1856 407 1857 0
-2042 2043 0
-411 -191 0
-1323 -441 1324 0
-2469 -160 2471 0
-2752 469 2754 0
-1458 1461 0
-3192 3193 0
-2167 2169 0
-2481 162 2483 0
482 1904 0
-98 97 0
5 518 0
-218 217 0
-158 2446 0
-943 944 0
-3234 233 3236 0
-2477 2478 0
73 1268 0
-82 1394 0
-1830 1831 0
-2155 140 2157 0
-747 748 0
-1530 1534 0
-1637 -100 1639 0
-2610 -307 2611 0
-1408 1416 0
-1107 1115 0
-375 2690 0
-2421 -156 2423 0
-3326 3327 0
191 192 193 194 423 424 425 426 0
-1412 1418 0
-1675 103 1677 0
-1531 449 1532 0
149 2323 0
87 1445 0
-269 1581 0
-1002 -54 0
-1902 1904 0
-1120 -63 1122 0
220 3142 0
-665 26 667 0
-723 300 0
-1003 -54 1004 0
-939 941 0
-1074 59 1076 0
-1182 1183 0
-363 -175 0
-3069 -296 0
-2027 2030 0
-159 2449 0
-1207 -311 1208 0
-58 57 0
-51 999 0
-2899 195 2901 0
-4 522 0
-1981 -362 0
-3331 -244 3333 0
-20 19 0
-2010 -391 2011 0
-33 760 0
-2580 -277 0
-2225 -144 2226 0
-1130 -371 0
-76 1292 0
136 2114 0
79 1351 0
-3080 -213 0
-2399 2400 0
144 2234 0
-1617 1618 0
-72 71 0
-2404 2406 0
-2529 -166 2530 0
-706 -30 0
-192 191 0
257 0
-917 918 0
-1287 -76 0
-1494 -406 0
-3233 3234 0
-539 -7 541 0
-1097 -60 0
-2491 386 2492 0
-2939 -199 2941 0
-965 357 966 0
-793 -345 794 0
127 2014 0
-1624 1628 0
260 2772 0
-2834 2835 0
-815 -36 817 0
-1644 -337 0
-1104 1105 0
-416 688 0
-1801 -284 0
-3313 -242 3314 0
-3109 -366 0
-2556 -446 0
-77 1322 0
-3089 216 3091 0
-3015 437 0
-97 1609 0
-2811 -322 0
-1094 -301 0
-1418 327 1419 0
-461 1332 0
-2901 2902 0
102 1674 0
-2477 -362 2479 0
225 3178 0
-1234 1237 0
-393 -133 0
-739 32 741 0
-20 637 0
-2509 -385 2510 0
-2111 -409 2112 0
-1539 1540 0
-3306 413 3308 0
-2300 394 2302 0
-1551 94 1553 0
-2710 2712 0
-86 1451 0
-3031 3034 0
-414 0
-3227 -473 3229 0
28 691 0
-1136 65 0
-319 -171 0
-581 583 0
-1190 70 1191 0
-1197 314 0
-3187 -226 3188 0
-2303 150 2304 0
-1306 1310 0
-3319 244 0
-552 381 553 0
-362 361 0
-1591 1592 0
-2993 414 0
-2000 -127 2002 0
-179 2734 0
-1381 82 1383 0
84 1387 0
-1041 -251 1042 0
-2999 -411 0
-950 312 0
-1487 -403 1488 0
-1642 -335 1643 0
-1673 1674 0
80 1352 0
-1064 -58 1065 0
-3145 -220 3147 0
-891 892 0
-229 3226 0
-1255 386 0
-1011 1012 0
-1358 281 1359 0
-2754 470 2756 0
-1993 393 0
-2800 2808 0
-675 -247 677 0
-1677 104 0
-746 324 748 0
-3270 3273 0
-1799 1804 0
-464 1760 0
-2565 2567 0
-2664 -351 2665 0
-1213 -314 0
72 1245 0
-813 383 814 0
-181 2758 0
101 1653 0
-123 1945 0
-292 941 0
-2770 260 2771 0
-1545 1549 0
-2166 2168 0
-2714 -410 2715 0
471 3034 0
-2120 454 2122 0
110 1779 0
-1912 1913 0
-614 -16 616 0
-1537 -93 1539 0
-754 -32 756 0
55 1025 0
-1091 -299 1092 0
-2175 2176 0
-1602 -97 1604 0
-3000 3002 0
-1285 -75 1287 0
-144 2249 0
-2280 2281 0
-2742 -182 2743 0
-455 -151 0
-3248 -234 3249 0
-2337 434 0
-3067 3069 0
-1417 326 1418 0
-2952 202 2954 0
-1 504 0
-293 -197 0
-2374 259 0
-2167 -274 2168 0
-336 335 0
-2749 -436 0
-938 940 0
-2901 196 2903 0
-836 399 0
-3112 -367 0
-2189 -142 2191 0
-3264 -236 0
-2172 2177 0
-985 986 0
-437 -229 0
-694 476 696 0
-567 415 0
-536 345 537 0
-2797 2798 0
-2959 2965 0
-2251 -146 2253 0
-2162 276 0
-1892 -451 1894 0
-2782 2783 0
-576 -415 0
-2284 -148 2285 0
-470 469 0
-503 292 0
-1835 1839 0
-2455 -341 2456 0
-138 2147 0
163 2489 0
-653 654 0
-2565 486 2566 0
-1778 110 1780 0
-2043 467 2045 0
-1420 1421 0
-1119 1120 0
-1341 253 0
-1169 268 1171 0
-1351 80 1353 0
-666 247 668 0
-236 3278 0
-443 1753 0
-1304 441 0
-258 257 0
-2612 -309 2613 0
-1565 1568 0
-1926 316 1928 0
301 1389 0
127 1990 0
-636 -20 638 0
-2332 2335 0
-1307 1311 0
-1775 -255 0
-913 -265 915 0
-2517 2518 0
-1710 420 1712 0
-396 2888 0
-1880 451 1881 0
-3104 3108 0
-2068 287 0
-310 309 0
-1010 478 1012 0
-833 39 0
-2584 2585 0
-430 429 0
-1764 253 1766 0
-1253 385 1255 0
-63 1125 0
-2704 2705 0
119 120 271 272 273 274 0
-1268 74 1270 0
-1621 1622 0
-293 -155 0
-2709 2711 0
-1957 360 0
-1684 1687 0
-1121 -63 1123 0
-1222 1223 0
-748 325 0
-551 381 0
-955 -48 957 0
165 2537 0
-2756 2757 0
-984 987 0
-2291 -375 2292 0
-1655 357 1656 0
-1347 1349 0
-3074 214 3076 0
-565 567 0
-2838 2839 0
-20 626 0
-2056 2057 0
-2839 2843 0
-3196 397 3197 0
-179 2710 0
-2880 -191 0
-1237 -348 0
-847 -40 849 0
-2962 204 2963 0
-3206 3207 0
-2721 2727 0
-395 -177 0
-2123 2124 0
-112 111 0
-1752 -444 0
-694 695 0
247 495 0
-2890 2891 0
-3004 -413 3005 0
-232 231 0
-2919 489 2920 0
-1891 -451 1893 0
-2115 137 2117 0
-1308 442 1309 0
-1513 -427 1514 0
-335 -69 0
-1844 1845 0
-412 0
-3015 3017 0
-3115 -368 0
-1544 1548 0
-441 -51 0
-2940 -200 2942 0
-3340 246 3342 0
-540 -7 542 0
-1486 1489 0
-2042 466 2044 0
-3336 3339 0
-2068 2073 0
-2311 2315 0
-2253 2256 0
-284 283 0
-3340 3341 0
-3082 3084 0
-425 -215 0
-1713 106 1714 0
-1611 1615 0
-2678 2679 0
-2193 2199 0
-1896 1897 0
-107 1757 0
-188 2852 0
431 2335 0
-2704 411 0
-1661 -100 1663 0
-92 1513 0
-349 -99 0
-3213 426 0
-2191 -305 2193 0
-862 440 0
-496 497 0
94 1531 0
-1725 1728 0
-2346 2347 0
-1718 -104 1720 0
-1861 1867 0
-662 -24 0
-515 6 517 0
-150 2339 0
41 887 0
-2812 2813 0
-2789 319 2790 0
-617 621 0
-841 401 842 0
-2157 273 2159 0
-601 602 0
221 3154 0
-679 682 0
-1949 -340 0
-683 -26 0
-1850 1854 0
-2817 2819 0
-2413 2414 0
-357 -85 0
-1388 1390 0
-385 -147 0
-126 1999 0
-2397 -154 2399 0
-1143 403 0
-1340 253 1342 0
-2097 2098 0
-86 85 0
-206 205 0
57 1073 0
-921 45 923 0
-1867 -405 1868 0
-265 -25 0
-1051 1052 0
-1748 -108 0
-2567 487 2568 0
-3188 -379 3189 0
-137 2146 0
-446 2559 0
-2733 436 0
-68 1199 0
-1460 1463 0
-3310 3313 0
-1001 -53 0
-1668 -358 1670 0
-963 50 964 0
-876 881 0
-2866 190 2868 0
-2652 2653 0
-323 -17 0
-2830 -341 2832 0
-710 31 712 0
-2719 181 2721 0
-203 2973 0
-1437 87 1439 0
-1952 1953 0
-1170 1171 0
-1392 304 0
-2837 189 2839 0
247 671 0
-2140 484 2142 0
-1264 -384 1265 0
-1286 -76 1288 0
-2879 -191 2881 0
-2128 -138 0
14 584 0
-19 636 0
-771 772 0
-1244 72 1246 0
-2064 285 2066 0
-532 7 0
-715 32 716 0
-2786 2787 0
-2004 2005 0
-2140 2144 0
-1599 315 1600 0
-2082 2085 0
-2717 -412 0
-2407 -289 2408 0
-407 2109 0
-2606 2610 0
-2387 2388 0
-2320 -394 2321 0
-1605 1606 0
-3154 3155 0
-2615 173 2617 0
-421 -149 0
-720 723 0
-180 179 0
-963 965 0
174 2626 0
-905 906 0
-1487 1490 0
-1457 -371 1458 0
-1969 1975 0
68 1183 0
-1161 428 0
-1025 1026 0
-530 6 532 0
-2439 2440 0
115 1874 0
-3190 226 3192 0
-1612 1616 0
-2571 -485 2573 0
-2521 2522 0
-1534 452 0
-469 2762 0
1 496 0
-1631 337 1632 0
-1739 1740 0
-108 1758 0
-2279 2284 0
-3104 -216 3106 0
-2564 2566 0
98 1597 0
361 2465 0
-367 -223 0
-2392 288 2394 0
-1077 1078 0
-160 2470 0
-355 -213 0
-2326 2330 0
-122 1944 0
-1851 405 1852 0
-2030 -130 2031 0
-457 3122 0
-2494 386 2495 0
-3344 -246 3346 0
261 0
-633 369 635 0
-1178 -268 1179 0
-2573 2574 0
-1170 268 1172 0
-1024 -480 0
-2343 -431 2345 0
-2204 144 2206 0
-223 3181 0
-3014 3016 0
-2713 2715 0
-468 2367 0
-1206 -70 1207 0
-387 -189 0
-745 746 0
-2378 -257 2380 0
-808 381 809 0
-2457 160 2459 0
-3028 -437 0
-2760 2761 0
-1289 1292 0
-573 -12 575 0
-736 -298 737 0
-3081 3083 0
-1652 1654 0
-187 2851 0
-1352 1357 0
-1009 477 1011 0
-2361 2362 0
-350 349 0
-1579 1580 0
-2836 188 2838 0
-2885 2887 0
-2629 332 0
-1252 384 1254 0
-2366 2368 0
-277 -183 0
-154 153 0
-937 939 0
-1661 1662 0
-93 1560 0
-1461 1464 0
-1905 484 0
-2154 -486 0
-2968 2973 0
-1219 1226 0
-2365 -468 2366 0
-999 1000 0
-2054 132 0
-55 1034 0
-337 -113 0
-1724 1727 0
-1766 1767 0
-2001 -128 2003 0
-149 2338 0
-1223 1228 0
-410 0
-1194 311 1195 0
-3194 228 3195 0
-761 764 0
-1115 369 1116 0
-2353 152 2355 0
-1004 1006 0
-242 3315 0
-3093 3099 0
-2553 2555 0
41 863 0
-1849 1853 0
-3262 3263 0
-670 249 0
-1015 480 0
-1681 390 0
-1129 1132 0
-667 668 0
-947 48 948 0
-1806 -283 1807 0
-1413 326 0
75 1278 0
-1737 108 1739 0
-2682 -176 2684 0
-3044 -473 0
-1900 1901 0
-1908 -481 1910 0
-2151 -485 0
-2086 -286 2087 0
-1630 336 1631 0
-1501 1502 0
-1231 -71 1233 0
-1612 -315 0
-2415 317 2417 0
-1321 1325 0
-801 802 0
-1533 451 1534 0
-230 3220 0
-786 787 0
-2579 -276 0
-324 323 0
-935 -46 936 0
-3274 367 0
-2860 2865 0
-2067 286 0
-3025 -436 3027 0
-1173 270 0
-585 440 0
-647 24 649 0
399 839 0
-1635 1636 0
-853 854 0
-2460 2462 0
437 0
341 2820 0
-2873 396 2875 0
-2924 -488 2926 0
-973 974 0
-3247 3250 0
-1088 -60 0
-106 1727 0
-2526 -165 2528 0
-2228 -329 0
-2300 2306 0
-2165 -273 0
-34 785 0
-2469 2470 0
-458 457 0
-479 1566 0
128 2015 0
-2283 -373 0
-2347 2352 0
-2908 -196 0
-2590 2594 0
-2651 351 2653 0
-2904 448 0
-1946 -337 0
-1800 -283 0
-2985 206 2987 0
-176 2664 0
-1160 427 0
-911 -44 913 0
-1953 1959 0
-2137 2138 0
-1879 1881 0
-2235 145 2237 0
-1048 1055 0
-1957 1961 0
-869 441 870 0
-41 879 0
-333 -47 0
-888 459 890 0
-1237 1240 0
-35 815 0
-1033 252 0
-775 776 0
-2971 2972 0
-3341 491 3343 0
-98 1634 0
-2888 -397 2889 0
-298 297 0
-3237 234 0
-2096 408 2098 0
-2913 196 2915 0
-418 417 0
-1907 -481 1909 0
-900 902 0
-2330 431 2331 0
-1699 -389 1700 0
-53 1003 0
-2831 -342 2833 0
-2241 350 0
-1844 115 1846 0
-2720 181 2722 0
-1006 -450 0
-647 651 0
-1846 116 1848 0
-1776 -255 1777 0
-2838 189 2840 0
-2079 -285 0
-271 -109 0
-1042 -252 0
-2443 2444 0
-53 1016 0
-432 431 0
-2986 206 2988 0
-267 1178 0
-1122 -64 1124 0
-861 439 0
-128 2010 0
-1035 1040 0
-2826 2827 0
-399 -25 0
-2044 2045 0
-1284 -75 1286 0
-568 415 569 0
-110 1771 0
-1081 1082 0
-2931 2932 0
-371 -71 0
263 0
-3256 331 0
-369 -25 0
-2893 2894 0
475 596 0
-3094 366 0
-2878 2879 0
-70 1210 0
-220 219 0
-1174 -68 1176 0
-149 2314 0
78 1310 0
-1433 -327 1434 0
265 907 0
-2597 310 0
-2479 2480 0
-3291 387 0
-1832 1833 0
-2639 -329 2640 0
-3003 3005 0
-1582 -271 0
-2945 2946 0
-783 348 0
-2886 -396 2887 0
9 550 0
-1974 -126 1975 0
-272 271 0
-2432 -320 0
-392 391 0
-3128 3131 0
-615 -17 617 0
-134 2083 0
-3166 -224 3168 0
-3242 -232 3244 0
-3132 3133 0
-2286 -374 0
-1966 1967 0
-631 22 633 0
-1184 1185 0
-1665 -102 1667 0
-1827 -113 1829 0
-1176 -267 0
-2718 2719 0
-335 1103 0
-301 -67 0
-406 405 0
-150 2317 0
-3287 239 3289 0
-1471 403 1473 0
-1596 315 0
-2038 130 2040 0
-835 40 836 0
227 3206 0
-1775 1777 0
-2018 2019 0
-926 292 928 0
-136 2107 0
-166 0
129 2038 0
-1302 78 1304 0
-1619 1620 0
-1719 -105 1721 0
-1885 454 0
-2230 -328 2231 0
-74 73 0
-143 2225 0
-1135 65 1137 0
-194 193 0
-2930 2933 0
-1857 408 0
-1931 -120 1933 0
-2338 -150 2340 0
-719 722 0
-1673 102 1675 0
-1201 1207 0
-561 -382 0
-3235 3236 0
-2662 -176 2663 0
231 3230 0
-1647 -337 1648 0
-38 827 0
-599 265 0
-2002 -128 2004 0
95 1585 0
197 0
-1626 1630 0
-246 245 0
-2093 136 2095 0
-1106 1107 0
-1521 93 1523 0
-2809 -320 2810 0
-1868 -406 1869 0
-1738 443 1740 0
-2914 487 2916 0
-221 3163 0
-477 1022 0
7 546 0
-3071 213 3073 0
-1878 1880 0
109 1762 0
210 0
-2008 -392 2009 0
-2666 -352 2667 0
-113 1834 0
-1158 1159 0
-1640 1644 0
-2943 -309 0
-513 5 515 0
-1925 1926 0
-2401 -156 2402 0
-2623 329 2624 0
-699 -475 701 0
-380 379 0
-1232 -72 1234 0
-2716 -411 2717 0
-2712 2714 0
166 2538 0
-1626 335 1627 0
90 1496 0
-120 1915 0
-2008 2012 0
-2774 2775 0
-2050 2052 0
-2735 -181 2737 0
-325 -59 0
-616 -17 618 0
-1539 -94 1541 0
-1817 304 0
-1093 -300 1094 0
-3076 343 0
-583 585 0
-730 -297 732 0
-2429 -318 2430 0
-58 1086 0
-2059 2060 0
-89 1507 0
-934 -46 0
-1058 -56 1060 0
-630 631 0
-2470 -161 2472 0
-28 699 0
-109 1794 0
-168 167 0
-521 -4 523 0
-893 894 0
-102 1689 0
-1839 -304 1840 0
-1355 82 0
-2874 396 2876 0
-2925 -488 2927 0
-1073 58 1075 0
-1780 1781 0
-1968 -125 1970 0
-1081 300 1083 0
77 78 461 462 463 464 0
-2289 -375 0
-170 2578 0
-760 763 0
241 3317 0
184 2783 0
-2552 2554 0
-2614 2615 0
-604 -266 0
220 3150 0
-522 527 0
-2854 2862 0
-2669 -354 0
245 3328 0
-1794 1795 0
-948 311 0
196 2914 0
-673 250 0
-1914 1915 0
-385 -101 0
-1684 391 0
143 2233 0
131 0
-191 2882 0
48 949 0
151 2353 0
89 1475 0
215 216 217 218 455 456 457 458 0
-413 -227 0
-1408 86 1410 0
-1424 -86 0
-454 2135 0
-2686 2688 0
-1605 -98 1607 0
-2282 2283 0
-1797 1803 0
-1854 405 1855 0
-2382 -259 2384 0
-2842 190 2843 0
-1801 1805 0
-1019 1023 0
-606 17 608 0
-920 45 922 0
64 1135 0
-1382 1385 0
-321 -211 0
-1020 -478 0
-3116 3117 0
-1874 116 1876 0
-1344 1347 0
-2097 408 2099 0
-1156 -403 0
-981 389 0
-1186 70 1188 0
-2566 487 0
-142 141 0
-2586 172 2588 0
-2511 -387 2512 0
-3183 3184 0
-1000 -53 1002 0
-353 -187 0
-2176 305 0
-1638 -335 1640 0
-807 811 0
-1774 1776 0
-162 2498 0
-1985 128 1987 0
-2483 2484 0
-2299 393 2301 0
-2522 423 2524 0
-305 -133 0
-2762 -470 2763 0
-1228 350 0
-371 1462 0
-2591 307 2592 0
-2150 -484 0
-1641 1645 0
-2851 2852 0
-2903 447 0
27 690 0
-2739 -433 2741 0
-1768 1769 0
-1121 1122 0
-17 620 0
-3317 3318 0
-1888 1889 0
-2311 -150 2313 0
-2953 2962 0
244 3320 0
173 2622 0
-1996 393 1997 0
-130 2032 0
-2957 2964 0
-707 708 0
-463 1334 0
-2897 194 2899 0
-2683 -177 2685 0
-1309 1313 0
-1238 -347 1239 0
-1397 -84 1399 0
-2970 -204 2972 0
-1623 335 0
167 2561 0
-2323 2324 0
91 1519 0
-312 311 0
-1164 -427 0
-3090 3091 0
-3182 -225 3184 0
-3087 3096 0
-3168 3171 0
-6 539 0
38 811 0
-2085 2088 0
236 3270 0
-1843 1850 0
-1336 251 1338 0
-899 901 0
-1623 1624 0
-2448 2450 0
-2052 -467 2053 0
-2119 453 2121 0
-1503 428 1505 0
-961 962 0
-2517 166 2519 0
256 2057 0
-818 -38 820 0
-2210 2214 0
-2797 -184 2799 0
-2364 -468 0
-1748 1750 0
-275 2579 0
-1167 267 1169 0
-2457 2458 0
-446 445 0
-1650 101 1652 0
-3224 3225 0
-1841 -306 0
-2324 151 2326 0
-2785 186 2787 0
-1416 325 1417 0
-1185 70 1187 0
-1315 1322 0
-2503 -385 0
-1862 1863 0
-293 -81 0
-1547 -449 1548 0
-2707 2710 0
-696 697 0
-1897 -454 0
-2413 158 2415 0
-2892 2893 0
-2129 -138 2130 0
-2003 2008 0
-1249 383 1251 0
-974 -358 0
-1929 1930 0
-2773 262 0
111 1786 0
-1493 -405 1494 0
-1872 -407 1873 0
-721 298 722 0
-2837 2842 0
-2297 2298 0
-2431 -319 2432 0
-286 285 0
-577 -416 0
-2810 -321 2811 0
-2763 -471 0
-2514 165 2516 0
-1400 -302 1402 0
-1739 443 1741 0
-2599 2606 0
-2895 -425 0
-2680 2681 0
-1655 1657 0
103 1679 0
65 1158 0
-2050 -466 2051 0
168 2562 0
-815 816 0
-1922 122 1924 0
-3072 213 3074 0
-2242 2247 0
-230 0
-940 942 0
-2243 146 2244 0
-1794 -110 1796 0
79 1335 0
-420 419 0
-1785 1789 0
-1925 315 1927 0
-1727 1730 0
-3334 3338 0
-227 3214 0
-2309 2314 0
146 2264 0
-3223 473 3225 0
-2251 2255 0
-759 -323 0
-2814 2815 0
-1065 1068 0
-2622 174 2623 0
-2736 -181 2738 0
-603 604 0
-2556 2558 0
-2799 2800 0
-1313 444 0
-1502 428 1504 0
-1852 1856 0
-1367 1376 0
-3127 490 0
-108 1751 0
-2634 -174 2636 0
-1939 -316 1940 0
-417 -51 0
-2443 341 0
81 1357 0
-2099 2100 0
-2040 465 2042 0
-2866 2867 0
-122 1937 0
-2073 288 0
-208 207 0
-1437 1438 0
-2767 259 2769 0
-1649 100 1651 0
-2986 2987 0
-2179 306 0
-411 3002 0
-626 -333 0
-1273 1280 0
-705 -478 0
-1784 283 0
-2406 -289 0
-1277 1282 0
-1056 281 1057 0
-1261 1263 0
-443 -91 0
-615 620 0
-2314 -150 2315 0
-260 259 0
-1324 1328 0
-173 2658 0
-2637 -330 0
-3222 230 3224 0
-2654 2655 0
-1571 1572 0
-1141 402 0
-3120 3121 0
-1809 -286 0
-3006 206 3008 0
-2338 2339 0
-430 0
-2654 352 2656 0
-1172 1173 0
-2991 413 2993 0
-1310 441 1311 0
-439 -23 0
-3249 -295 3250 0
-2706 2707 0
35 799 0
-249 1040 0
-1087 -59 0
-394 393 0
-646 23 648 0
-317 -141 0
-2277 376 0
-1180 -269 1181 0
-968 -49 970 0
-1641 -100 1642 0
-2488 2492 0
-1214 70 1216 0
80 1336 0
-2709 -180 0
-2004 -391 0
-1686 391 1687 0
-1921 121 1923 0
-2608 2612 0
-1816 303 0
-2593 2597 0
-1607 1608 0
-582 584 0
-3156 3157 0
-2855 2856 0
-2131 2133 0
-1256 -72 1258 0
201 2952 0
-644 645 0
-145 2278 0
-2840 2841 0
-1390 303 0
-182 181 0
-1411 1412 0
-621 -297 622 0
175 2670 0
-1820 304 1821 0
-1489 1492 0
-2213 327 2214 0
-2256 2259 0
-181 2742 0
-101 1688 0
-2441 2442 0
30 710 0
-1942 -318 0
-3205 -398 0
-2728 434 2729 0
-711 712 0
-565 12 0
-1111 370 1113 0
-2907 2908 0
-556 -9 558 0
-2547 447 0
-1863 -405 1865 0
-1556 1559 0
-2727 2731 0
-234 233 0
110 1763 0
-2339 -151 2341 0
-1723 -419 0
-130 2047 0
-836 838 0
-1079 1080 0
139 2171 0
-3266 -236 3267 0
-3174 225 3176 0
-182 2759 0
-316 315 0
-2003 -391 2005 0
-1303 1308 0
-3094 3095 0
-3179 379 3180 0
-1151 -401 1153 0
-3293 -238 3295 0
-2575 2576 0
-2820 342 2821 0
-1672 -360 0
-22 654 0
-2184 307 2185 0
-1146 1147 0
-1628 1632 0
-2756 471 0
-679 -249 0
-368 367 0
-724 -30 726 0
-1687 392 0
-488 487 0
-2820 2822 0
-2349 -431 2350 0
-611 18 612 0
-1734 107 1736 0
126 1962 0
-2583 2590 0
-88 1481 0
-2975 -378 0
-2869 192 2871 0
-2887 2889 0
-2990 412 2992 0
-3041 -472 3043 0
-81 1376 0
-2105 2107 0
-2587 2592 0
-880 -439 881 0
-618 619 0
-156 155 0
-1474 405 0
-1867 1871 0
-1027 249 1029 0
-1001 1002 0
-2691 -377 0
-138 2131 0
-685 686 0
-3093 366 3095 0
-2798 -185 2800 0
-763 766 0
-2531 -421 2532 0
-2555 2557 0
-1773 1775 0
-1168 267 1170 0
-3264 3265 0
-1611 -314 1612 0
-3178 226 3179 0
-2144 485 2145 0
-1581 -270 1582 0
-470 0
-2602 2603 0
-3327 3330 0
-290 289 0
-2758 -182 2760 0
-1542 -450 0
-2281 -148 2283 0
-226 3199 0
-1782 1783 0
-2475 -361 2477 0
-3331 3332 0
-2347 -433 0
-1750 -443 0
-373 -113 0
-2727 433 2728 0
22 645 0
-2296 150 2298 0
1 0
-2292 -376 0
-2489 2493 0
-342 341 0
-105 1745 0
-2275 374 2276 0
-2388 156 2390 0
-1323 1327 0
-2982 204 2984 0
-2736 2737 0
-3012 435 3013 0
-1954 1955 0
-1558 481 1559 0
-1789 1793 0
-91 1535 0
-3261 3266 0
-1730 -420 1731 0
-2497 -162 2499 0
-146 2279 0
-788 789 0
-1069 1072 0
-1254 1255 0
-24 663 0
-1199 -69 1201 0
-2803 2804 0
-608 612 0
-1350 -254 0
-2454 -341 0
-1445 88 1446 0
-670 673 0
-1079 299 1081 0
-130 129 0
-2623 2627 0
83 1405 0
-397 -215 0
-79 1343 0
-29 706 0
-855 856 0
-2462 2464 0
-2976 -377 2977 0
-975 976 0
-72 1238 0
-733 738 0
-2224 2228 0
-2070 285 2071 0
-1701 -391 1702 0
-3047 211 3049 0
-1890 -118 1892 0
-2209 2213 0
-2529 2531 0
-2815 188 0
-884 -440 885 0
-2471 2472 0
-3296 3298 0
-810 383 0
-2833 -343 2835 0
-455 -207 0
357 1657 0
-1027 1028 0
-2796 322 0
-862 866 0
-1704 105 1706 0
-682 -250 0
-3029 -438 0
-789 792 0
-1148 -65 1150 0
-3305 3306 0
-1095 -301 1096 0
-1934 1936 0
-1876 1877 0
-428 0
-1932 -121 1934 0
-1333 -463 0
-2663 2665 0
-2978 -379 0
-1881 1883 0
-2594 307 2595 0
-3133 -489 3135 0
-1814 114 1816 0
-3168 -355 0
-1943 1944 0
-2726 2730 0
-66 1163 0
-764 -324 765 0
-2220 -144 2222 0
-3079 -213 3081 0
-1239 1242 0
-3192 227 0
-2788 2791 0
-653 -22 655 0
-771 35 773 0
-589 -14 591 0
-2871 395 2873 0
-1788 284 1789 0
-1659 359 1660 0
-2715 2717 0
-300 299 0
-3078 3079 0
-294 0
-3085 -344 0
-1399 -301 1401 0
-2599 -171 2601 0
-2384 -260 0
-2677 376 2679 0
-1460 -372 1461 0
-114 1859 0
-104 103 0
11 578 0
-3048 211 3050 0
-2274 373 2275 0
-1951 1958 0
-2187 -141 2189 0
-1634 -99 1636 0
-340 2455 0
-2857 -363 2859 0
-3145 3146 0
-2574 -487 2576 0
234 3252 0
-1767 255 1769 0
-52 0
-1514 -428 0
-1858 -114 1860 0
-2445 2446 0
-843 -38 845 0
-1016 1017 0
-56 1059 0
-87 1480 0
-3212 3213 0
-2453 -340 2454 0
-2715 -411 0
-1320 -441 0
-252 1349 0
-2089 134 2091 0
-1483 1487 0
112 1811 0
177 2694 0
-1688 -102 1690 0
-2049 -466 0
-2934 309 0
221 3151 0
-603 -265 0
-1083 1084 0
-1866 1870 0
-3279 3280 0
-2887 -397 0
-198 2938 0
-133 2101 0
-417 1295 0
-1088 1090 0
-684 685 0
-2880 2881 0
-1745 -106 1747 0
152 2354 0
-1917 1918 0
40 837 0
-1110 369 1112 0
209 3046 0
-2947 2948 0
-1625 100 1626 0
-2182 307 0
-2689 2691 0
-274 273 0
-2340 -151 2342 0
-2802 -319 2804 0
-2047 2050 0
451 1882 0
-1585 1586 0
-1640 -336 0
-2984 205 2986 0
-2492 387 0
-3014 436 3015 0
-2109 2111 0
-3135 3139 0
-2605 -308 0
-923 924 0
-3119 3120 0
-127 2026 0
-2383 -259 0
-3302 241 3304 0
-318 2431 0
-2955 204 2957 0
-2419 2420 0
-3176 226 0
-408 407 0
-868 440 869 0
-748 753 0
-741 33 743 0
-810 814 0
-2440 340 2442 0
-2020 2021 0
208 3012 0
-2701 410 2703 0
-563 11 565 0
-447 -181 0
182 2730 0
-2868 191 2870 0
-3253 3254 0
68 1167 0
-1635 -99 1637 0
-51 987 0
-2607 2611 0
-4 510 0
37 807 0
-3042 -472 3044 0
-881 -440 882 0
-3315 -413 3316 0
-2198 -306 2199 0
-1274 417 1276 0
-1706 106 1708 0
-548 9 0
-3217 -230 0
-139 2163 0
-2192 2193 0
-762 -324 0
-3163 -222 3165 0
-538 -6 540 0
-2921 2922 0
-1974 1978 0
-2910 -447 0
-2741 2745 0
-248 247 0
-166 2531 0
-591 -439 593 0
210 3047 0
-1209 -313 0
-129 2046 0
-835 837 0
-2222 -327 2224 0
-2476 -362 2478 0
-1182 68 1184 0
-1160 1161 0
-870 442 0
-1199 1206 0
-1927 1928 0
-1442 1448 0
-21 653 0
-1462 -372 1463 0
-2451 2453 0
-2393 2394 0
-382 381 0
-2363 -467 0
-3238 3241 0
-800 807 0
-497 3 499 0
-30 725 0
-2776 2777 0
-1751 1753 0
-804 809 0
202 2953 0
-275 -153 0
-2022 430 2024 0
-37 843 0
-1634 1641 0
-2061 2062 0
-2954 203 2956 0
-2886 2888 0
-632 633 0
-2828 2829 0
-192 2891 0
-2945 -200 0
-170 169 0
-1399 1400 0
-100 1662 0
-2091 135 2093 0
-2948 2949 0
-1422 -85 1424 0
-2076 -133 2078 0
-1896 -453 0
-1361 282 1362 0
-2753 470 2755 0
-562 10 564 0
-2895 2896 0
-87 1456 0
-2248 2249 0
-2974 -377 2975 0
-289 -183 0
-1193 313 0
-762 765 0
-222 221 0
-1286 1290 0
-3261 -235 3263 0
-349 -113 0
-3053 294 3055 0
-292 0
-1183 69 1185 0
-2616 2617 0
-2532 -422 0
-304 303 0
-1548 -450 1549 0
-2032 -429 2033 0
-995 54 997 0
-2240 350 2242 0
-225 3198 0
-1916 1917 0
-714 297 0
-1134 1135 0
-2194 -306 0
120 1920 0
-1658 1660 0
-983 -50 985 0
-2513 164 2515 0
-1203 -311 1205 0
-175 2682 0
-896 899 0
-356 355 0
215 3096 0
-1721 1725 0
-2688 2690 0
-476 704 0
-476 475 0
-1259 1261 0
-774 781 0
-3134 -489 3136 0
-2750 2751 0
-1968 1969 0
-1105 63 1107 0
-88 1459 0
-1803 1807 0
-1356 281 0
-1616 -316 0
-467 2365 0
-2813 2816 0
-590 -14 592 0
-1788 1792 0
-476 -475 -14 -13 0
-2852 2861 0
-765 -325 0
-1268 1269 0
-2633 2639 0
-2676 375 2678 0
-1617 98 1619 0
-23 662 0
-1882 452 1883 0
-2155 2156 0
-2637 2641 0
-144 143 0
69 1190 0
-2247 352 0
-2400 -156 0
172 2594 0
-1884 453 1885 0
-2622 2626 0
-3185 3186 0
-809 813 0
121 122 123 124 337 338 339 340 0
-2107 -407 2108 0
-2737 -182 2739 0
-196 195 0
-1703 1704 0
-3009 3011 0
-2285 2288 0
-2232 -330 0
-2346 -432 0
-3061 -212 0
-1412 326 1414 0
-687 -416 0
-278 277 0
-1507 1508 0
-48 968 0
-1643 1647 0
-427 -75 0
-2425 -158 2426 0
-2687 -375 0
-3319 3320 0
-2134 -455 0
211 3070 0
-3330 458 0
-1890 1891 0
-1108 1109 0
-3061 3063 0
185 2788 0
-1614 -314 1615 0
-2061 133 2063 0
-929 293 0
-1468 1476 0
-1410 1417 0
-2625 331 0
-330 329 0
-1970 -126 1972 0
-2662 2664 0
-3186 3189 0
-1440 371 1442 0
-650 24 651 0
-2724 2725 0
44 920 0
-146 2257 0
-3329 457 3330 0
-2430 -319 0
-658 -399 0
-116 1870 0
-2787 2790 0
-533 535 0
-2239 349 2241 0
-1187 311 1189 0
-2325 2326 0
-2501 -164 2503 0
70 1215 0
-1120 1125 0
-580 581 0
-2803 -319 2805 0
-499 4 501 0
-658 661 0
-2518 421 2520 0
-118 117 0
219 3149 0
-2671 177 2673 0
-1425 1428 0
-1183 1190 0
-2916 2918 0
-1977 -361 0
-2134 2136 0
-283 -95 0
-1104 62 1106 0
176 2671 0
-2212 2216 0
100 1629 0
-1187 1192 0
-1226 348 1227 0
-1913 -484 0
-277 2581 0
-2146 -138 2148 0
-3204 -397 0
-2459 2460 0
-909 267 910 0
-173 2638 0
-2929 198 2931 0
-3057 296 0
-2259 2262 0
247 0
-3226 3227 0
-1495 90 1497 0
-2462 361 0
-2263 2264 0
-792 795 0
-252 251 0
-387 -203 0
-191 2890 0
-2466 363 0
140 2172 0
-99 1661 0
-1097 1098 0
-3293 3294 0
-1864 1865 0
-839 841 0
-1622 1627 0
-351 -159 0
-1904 483 1905 0
-353 2949 0
-135 2125 0
-768 -326 0
-3055 295 3057 0
-1465 1466 0
-1164 1165 0
-1965 362 0
-3013 436 0
-403 1492 0
-415 -23 0
-1931 1932 0
-3346 -491 0
2 494 0
-2698 2699 0
-1405 84 1407 0
-169 2598 0
-742 750 0
-300 1095 0
-381 -25 0
-2328 431 0
-1936 1938 0
-944 47 946 0
-3154 222 3156 0
-507 509 0
-1984 127 1986 0
-1061 -58 1063 0
-2218 2225 0
-124 1967 0
-2299 2300 0
-524 -6 526 0
-1216 1217 0
-1682 389 1683 0
-2590 172 2591 0
-2843 2846 0
-1583 -271 1584 0
-1657 1659 0
-1830 -114 1832 0
-92 91 0
-2855 -190 2857 0
-817 818 0
-2336 433 2337 0
-240 3310 0
-856 863 0
-183 2797 0
-1031 250 1032 0
-1403 1404 0
-757 761 0
-1971 -359 1973 0
-699 702 0
-966 358 0
-2433 2434 0
-2103 -135 0
-3200 3201 0
-2156 273 2158 0
-824 828 0
-498 3 500 0
-1067 1070 0
-226 225 0
-2558 2560 0
-695 477 697 0
-2801 2802 0
-986 -52 0
-315 -113 0
-195 2921 0
-271 1916 0
-2426 -317 0
-2066 286 2068 0
-2621 2625 0
-465 2050 0
-493 2 0
-2122 455 2124 0
-2683 2686 0
-2868 2869 0
-1439 1440 0
-2711 -409 0
-2988 2989 0
-731 -298 733 0
-1123 1124 0
-1850 116 1851 0
-829 -383 830 0
-2290 -374 2291 0
-3289 240 3291 0
-1263 1265 0
-951 -46 953 0
-2030 2032 0
-327 -97 0
-262 261 0
-2287 -373 2288 0
-395 2886 0
-216 3117 0
-3040 3041 0
-2563 485 0
45 943 0
-2702 410 2704 0
-3116 -216 0
-3258 331 3259 0
-164 2526 0
-3262 -235 3264 0
-1010 1014 0
-3054 294 3056 0
-1573 1574 0
-1549 -451 1550 0
-2340 2341 0
-2844 364 0
-1096 -302 0
-1451 1456 0
-911 912 0
-2294 149 2296 0
-2920 490 0
-2840 190 0
-1271 1279 0
-2145 486 0
-2947 -202 0
-2465 2467 0
-396 395 0
-3174 3175 0
-1731 -421 1732 0
-1745 1746 0
-2227 2231 0
-1367 -81 1369 0
-2647 175 2649 0
-1247 74 1249 0
-200 199 0
-2532 2534 0
97 1617 0
-435 -193 0
-1750 1752 0
-2593 309 0
-1045 1046 0
-1812 1813 0
-64 1147 0
-2133 2135 0
-865 869 0
-233 3260 0
-646 647 0
-2258 -350 2259 0
-1875 1878 0
-2544 446 2546 0
-1413 1414 0
187 2836 0
125 1958 0
-1695 1701 0
20 629 0
-1175 1178 0
-713 714 0
-2482 2489 0
-3043 -473 3045 0
-2352 -434 0
-1480 1481 0
-2131 -453 2132 0
-1316 -77 1318 0
-2729 2733 0
-236 235 0
144 2213 0
105 1733 0
-838 840 0
-2791 2794 0
-3034 3036 0
-1329 -444 0
226 3191 0
-3164 -223 3166 0
-184 2798 0
-2372 2374 0
-2800 -186 2802 0
-1501 427 1503 0
-1829 1835 0
-273 2167 0
12 579 0
-3159 3162 0
-2823 344 0
-1915 1916 0
-473 -217 0
-3163 3164 0
-2381 2382 0
-370 369 0
-2480 -364 0
-710 715 0
-1030 1033 0
-196 2922 0
-490 489 0
-2006 -128 2007 0
-1982 1983 0
-714 717 0
-1853 407 0
-155 2401 0
-223 3169 0
-1586 97 1588 0
-2256 -350 0
-3236 234 3238 0
-1802 1806 0
178 2695 0
-2293 148 2295 0
-471 -195 0
-2172 141 2174 0
-2048 -465 0
-288 2407 0
-1439 88 1441 0
-2107 2109 0
-1359 282 0
262 0
-2839 190 2841 0
-2628 331 2629 0
-158 157 0
-2385 154 2387 0
-1869 1873 0
-2554 -445 0
-2264 147 2266 0
-982 390 0
-36 793 0
-1207 1211 0
-1092 -300 0
-1269 75 1271 0
-217 3118 0
-2117 138 2119 0
-1810 112 1812 0
-687 688 0
-1201 -70 1203 0
-1454 1455 0
-131 2074 0
-2724 433 0
-1105 1114 0
-3186 -379 0
-210 209 0
-1281 419 1282 0
-445 2557 0
-716 297 717 0
-1906 -118 1908 0
-754 755 0
-3170 -355 3171 0
-1335 80 1337 0
-1521 1522 0
-2168 -275 0
-3070 3071 0
-571 -11 573 0
-2585 2591 0
-1364 283 1365 0
-2005 -392 0
106 1734 0
-2066 2072 0
-740 33 742 0
-317 -133 0
-220 3146 0
-2792 320 2793 0
-168 2555 0
-2355 2356 0
-2491 2495 0
-344 343 0
-2191 2198 0
-832 39 834 0
-464 463 0
-946 948 0
-1150 -66 1152 0
-229 3218 0
-1771 1774 0
-1312 443 1313 0
-2738 2739 0
-3337 -246 3338 0
319 2794 0
-1956 1957 0
-1777 -256 0
-2076 2077 0
-234 3261 0
-1509 -91 0
-1192 312 1193 0
-3020 -207 3022 0
-3325 3329 0
-1256 1257 0
-863 42 864 0
-2805 2806 0
-1538 1544 0
437 3321 0
-594 595 0
-2308 -148 2310 0
-2625 2629 0
-132 131 0
-2262 -352 0
-1119 -62 1121 0
-245 3344 0
203 2982 0
-2482 163 2484 0
-2857 2858 0
-3060 -211 0
-2525 -164 2527 0
131 2059 0
-2211 2215 0
-2260 -350 2261 0
-572 -11 574 0
-2722 182 2724 0
-2997 2999 0
-276 2580 0
-1525 449 0
-1491 1494 0
-1636 -100 1638 0
26 666 0
-2627 330 2628 0
-728 729 0
-2786 186 0
-266 265 0
-1495 1496 0
-1007 54 1009 0
-1847 405 1849 0
-3044 3045 0
-2263 146 2265 0
-606 611 0
-791 794 0
-127 2006 0
-158 2427 0
-3180 380 0
-3309 -240 3311 0
-1860 -115 1862 0
-3107 3110 0
-845 -39 847 0
-702 -476 703 0
-731 737 0
-2234 145 2236 0
-1291 -418 0
-318 317 0
-1235 -72 1236 0
-1690 -103 1692 0
-438 437 0
-1945 1946 0
-1852 406 1853 0
-2770 2772 0
-3252 3257 0
-35 790 0
142 2180 0
-2318 -394 2319 0
-1479 406 0
-1283 1284 0
-998 450 0
-3221 -426 0
-1898 118 1900 0
-1918 -274 0
-1571 269 1573 0
-2900 196 2902 0
-2288 -374 2289 0
-1084 302 0
-1430 -326 1431 0
-2746 -433 2747 0
-3136 -490 0
-2331 432 0
-2620 329 0
-2419 319 0
-2117 2118 0
-106 105 0
-2842 2845 0
-1817 1821 0
-2788 186 2789 0
51 991 0
-1427 -325 1428 0
-2848 364 2849 0
-2436 160 2438 0
-951 952 0
-3147 3148 0
113 1842 0
-1085 -58 1087 0
-2890 -192 0
-681 -249 682 0
-2804 -320 2806 0
-1018 1019 0
-3214 3215 0
-2387 155 2389 0
-3144 278 0
-3122 -458 0
-2266 148 2268 0
-822 -382 0
-1929 317 0
-240 239 0
-2648 175 2650 0
153 2385 0
-823 827 0
-1179 -269 0
-2394 289 2396 0
-3225 474 0
-765 768 0
-1085 1086 0
-196 2911 0
-2314 2317 0
-3281 3282 0
-2557 2559 0
-760 -34 761 0
-718 297 719 0
-1568 -482 0
-713 32 0
-832 835 0
-1040 -250 1041 0
-787 -36 789 0
31 715 0
-3058 -210 3060 0
-1919 1920 0
-1242 -349 1243 0
487 2917 0
-2045 468 0
-1927 316 1929 0
-3046 210 3048 0
-2968 -203 2970 0
-212 3064 0
-369 1131 0
-2506 2510 0
-2691 2693 0
-37 823 0
-1262 1264 0
-3215 3218 0
-1204 1205 0
102 1655 0
-1476 403 1477 0
-996 449 998 0
-339 1949 0
-2029 2031 0
-2559 -447 2560 0
-1447 372 1448 0
-2101 -134 2103 0
-2360 470 0
-84 1421 0
-174 2659 0
-2541 168 2543 0
-80 79 0
-906 266 0
-163 2525 0
472 3036 0
-805 806 0
-838 400 0
-1523 94 1525 0
-925 926 0
-3121 3122 0
-1005 -449 1006 0
-910 268 0
-2246 351 2247 0
-2399 -155 0
-2038 2039 0
-3036 473 3037 0
-2174 2178 0
-1689 1698 0
-1262 -383 1263 0
-381 -21 0
-192 2884 0
-46 952 0
85 1435 0
-2421 2422 0
-3286 239 3288 0
-1353 81 1355 0
-349 -133 0
-1759 1760 0
-3113 -366 3114 0
-977 978 0
-2478 -363 2480 0
-3240 295 3241 0
-1293 -418 1294 0
-668 248 670 0
-676 677 0
-1294 -419 0
-812 382 813 0
-214 213 0
-118 1907 0
-2405 -288 2406 0
-2208 328 0
-3313 3315 0
-686 -415 0
-1466 89 1468 0
-2288 2291 0
-3110 -365 3111 0
-2531 2533 0
-3255 3256 0
-1826 1827 0
-2609 2613 0
-1526 1530 0
-3133 3138 0
-879 883 0
227 3194 0
-2081 -285 2082 0
-175 2662 0
212 3071 0
-2252 -146 0
-2689 -376 0
-864 868 0
-2686 -178 2687 0
-2817 341 0
-2969 -203 2971 0
-1536 -93 1538 0
-178 0
-107 1749 0
-2265 147 2267 0
-2660 2661 0
-1766 254 1768 0
-2684 -177 0
158 2434 0
-427 1515 0
139 2155 0
233 3251 0
-1579 -269 0
-1270 75 1272 0
-2393 288 2395 0
-3255 236 0
-2665 2667 0
-270 1583 0
-2743 2747 0
-1283 -74 1285 0
-2236 146 2238 0
-1075 59 1077 0
-2949 -354 0
-126 1978 0
-189 2861 0
93 1527 0
134 2090 0
-54 53 0
-2790 2793 0
-1361 1364 0
-3298 -387 0
-267 -55 0
-2638 -174 2639 0
-581 14 0
-1432 -326 1433 0
-3263 -236 3265 0
-997 449 0
-2453 2455 0
169 2582 0
7 534 0
-1428 1431 0
-2395 2396 0
-2858 -364 2860 0
-2760 -469 0
-2977 2980 0
-2735 2742 0
-151 2348 0
-583 439 0
198 0
-1733 1734 0
-2611 -308 2612 0
-2458 2461 0
-1783 283 1785 0
-2739 2744 0
-1753 1755 0
-188 187 0
-293 -95 0
-1378 -282 1379 0
-992 53 994 0
-1091 1093 0
-2802 2809 0
-877 -439 0
-2177 142 2178 0
-1800 1801 0
-2452 -340 0
-383 1264 0
-333 627 0
-409 -149 0
-1485 -403 0
-634 635 0
-608 18 610 0
-2830 2831 0
-194 2893 0
-2345 2351 0
-922 46 924 0
-1401 1402 0
-1100 1101 0
-2950 2951 0
-656 -24 658 0
-323 -25 0
-2650 176 2652 0
-410 2716 0
-3301 240 3303 0
-1826 -112 1828 0
-1660 360 0
-3143 277 0
-147 2308 0
-2333 432 2334 0
-2897 2898 0
-2250 2251 0
-407 -127 0
-2235 2236 0
-224 223 0
-71 1256 0
94 1552 0
-1152 1153 0
400 841 0
-3030 208 3032 0
-1046 1054 0
-1825 306 0
-1535 1536 0
-1050 1056 0
-1436 87 1438 0
-2037 -432 0
-873 874 0
-2479 -363 0
56 1044 0
-60 1098 0
-2376 260 0
-2416 318 2418 0
-3158 224 0
-3151 3152 0
-2427 2429 0
-3229 -474 0
-2369 2370 0
-1607 -313 0
-358 357 0
-1646 -336 1647 0
-3136 3137 0
-1691 -104 1693 0
-794 -346 795 0
-478 477 0
-601 -16 603 0
-417 -65 0
-11 586 0
-1704 1713 0
-385 -113 0
-1970 1971 0
-1831 -303 1833 0
-1998 -126 2000 0
-917 -267 0
-923 46 925 0
-1007 1008 0
-1990 128 1991 0
-569 416 0
-2304 393 2305 0
-3075 343 3077 0
-1540 -449 1542 0
-135 2105 0
-3087 215 3089 0
-1295 -418 1296 0
-2157 2158 0
-445 -151 0
-45 951 0
-3235 233 3237 0
-15 601 0
-203 2994 0
-2624 2628 0
-3051 293 3053 0
-30 707 0
-2437 160 2439 0
-2744 2748 0
-527 -6 528 0
-369 -35 0
-554 -8 556 0
-3119 -455 0
-2562 485 2564 0
-198 197 0
-2287 2290 0
-550 10 551 0
159 2457 0
-1509 1510 0
-3058 3059 0
-1171 269 1173 0
-156 2422 0
-1110 1111 0
-3063 3065 0
-2707 -179 2709 0
246 3341 0
-1159 427 1161 0
-3125 3126 0
-2401 2403 0
-332 331 0
-452 451 0
-1488 -404 0
-2892 -194 0
-934 936 0
-2602 -172 2604 0
-1276 418 0
-1944 1945 0
-2438 339 2440 0
-2526 2529 0
-1769 256 0
-1983 1990 0
-505 -3 507 0
-421 -115 0
-2190 -142 2192 0
-981 982 0
194 2898 0
-331 -185 0
-642 -369 643 0
98 1618 0
-940 -293 0
-393 2320 0
-2137 138 2139 0
49 975 0
-986 988 0
-2778 2779 0
-1063 -279 0
-120 119 0
-1022 -478 1023 0
-1427 1430 0
-1126 1129 0
186 2791 0
-3195 397 0
-176 0
-2918 2920 0
-2516 166 2518 0
-2334 433 0
188 2837 0
-1773 -254 0
-2078 2079 0
-461 -53 0
-2149 -484 2151 0
-852 -401 854 0
-1100 -333 0
-2723 2728 0
-2785 2789 0
-3033 472 0
-2265 2266 0
-254 253 0
-3032 3033 0
-2335 432 2336 0
-1465 88 1467 0
-2328 2331 0
160 2458 0
-2463 361 2464 0
-216 3110 0
-546 8 548 0
-3173 3178 0
-901 -461 902 0
-115 1886 0
389 1685 0
128 1994 0
-426 425 0
-2942 -309 2944 0
-1438 88 1440 0
-237 3293 0
-908 910 0
-2700 2701 0
-3129 490 3130 0
-1404 -304 0
-2552 -168 0
-210 3059 0
-1680 1683 0
-543 -345 545 0
-1233 -72 0
16 598 0
-2505 2509 0
-1218 1219 0
114 1843 0
-1327 -442 1328 0
-1820 1824 0
-556 557 0
187 2816 0
-338 1948 0
-806 382 0
-1855 406 1856 0
-2980 -379 2981 0
-1620 1626 0
-94 93 0
-1863 1868 0
-1805 1809 0
-325 -69 0
-231 3242 0
-419 1730 0
-165 2549 0
-2110 2112 0
-2931 199 0
-1221 1227 0
-1405 1406 0
-96 1602 0
-1047 58 1049 0
-2747 -434 2748 0
-3011 435 0
-623 624 0
-1805 -285 0
32 740 0
-1818 114 1819 0
-2639 2643 0
105 1713 0
-1992 1996 0
-98 1613 0
-3202 3203 0
-531 7 533 0
-206 3019 0
-1230 1235 0
-690 691 0
-826 830 0
-2905 -194 2907 0
-2239 2240 0
-3265 3268 0
-228 227 0
-1593 1597 0
-1146 -64 1148 0
-3064 -293 3065 0
-273 1918 0
-1223 349 0
-10 571 0
-3269 3270 0
141 2201 0
-2951 -356 0
-1070 -280 1071 0
-3007 207 3009 0
-2207 327 0
-1058 1059 0
-3011 3013 0
-465 -117 0
-433 -165 0
-1369 -82 1371 0
-878 882 0
-31 754 0
-3211 425 3213 0
-549 10 0
-2674 2675 0
483 2143 0
-1892 1893 0
-1211 -312 1212 0
-160 2451 0
-1662 -101 1664 0
-1384 84 0
-2032 2034 0
-530 531 0
-167 2569 0
-3276 368 0
-2619 2624 0
-1435 86 1437 0
-68 67 0
-550 552 0
-3096 216 3097 0
-1483 -90 1485 0
-2342 2343 0
-913 914 0
-2653 352 2655 0
-931 -44 933 0
-2026 2027 0
-1318 -78 1320 0
-597 598 0
255 0
-580 13 0
-2102 -135 2104 0
-2146 2147 0
204 2983 0
-1384 1386 0
-1266 -385 1267 0
-2933 2935 0
-2577 -170 0
-3176 3177 0
-3203 -397 3205 0
-541 -8 543 0
-1967 1974 0
-1492 -404 1493 0
-1747 1748 0
-425 2896 0
-202 201 0
-1971 1976 0
-2534 2536 0
485 2565 0
-1752 1754 0
-1489 -403 1490 0
-1047 1048 0
-62 1120 0
-1372 -281 1374 0
-1814 1815 0
-1759 -464 0
-2011 -392 2012 0
-2427 -317 2428 0
-890 460 892 0
-238 3294 0
-2268 373 2270 0
-2659 2662 0
-2375 259 2376 0
342 2822 0
-794 797 0
161 2481 0
-1939 1941 0
-193 2892 0
-2261 -351 2262 0
-1099 1100 0
-3 508 0
-2648 2649 0
-3328 246 3329 0
-2488 386 0
-1697 -391 0
-2681 378 0
-1948 1949 0
-732 -298 0
137 2137 0
-1166 1167 0
-756 -33 758 0
-193 2905 0
-2459 161 0
-2793 2796 0
-1036 -249 1038 0
-3 521 0
-17 623 0
-1861 -116 1863 0
-42 41 0
-391 -113 0
-777 346 0
-1012 479 0
-887 888 0
-586 587 0
-2065 285 2067 0
203 2962 0
-1353 1354 0
-2881 -192 0
-1725 -419 1726 0
-2078 -134 0
-3185 -226 0
-649 652 0
-2845 2848 0
-1034 -56 1036 0
-1103 -336 0
-2383 2384 0
-3023 -435 3025 0
-3150 3151 0
-1324 -442 1325 0
-492 491 0
-245 3337 0
-2446 2449 0
-22 642 0
-2970 2974 0
-716 719 0
-176 175 0
-373 2290 0
-805 381 0
-2898 195 2900 0
-3121 -457 0
-2326 152 2328 0
-821 -381 0
-949 311 950 0
-1561 1566 0
-1524 449 1526 0
-2744 -434 2745 0
-401 -51 0
-1265 -385 0
-3095 3100 0
-1608 1612 0
-3307 413 0
-1023 -479 1024 0
-23 659 0
-2846 364 2847 0
-2638 2642 0
-178 2707 0
-1073 1074 0
-1561 -479 1563 0
-1837 -305 0
-2941 -200 2943 0
-1943 -122 0
223 3172 0
-800 37 802 0
-2223 2224 0
-212 211 0
-889 459 891 0
-1222 348 0
-493 494 0
-2344 -431 2346 0
-2767 2770 0
-3010 3012 0
-89 1486 0
-1581 1583 0
-1523 1524 0
-2771 261 0
-3072 3073 0
-1265 1267 0
232 3234 0
-861 862 0
-560 561 0
-1916 -272 0
-3284 -368 0
-928 293 930 0
-2357 2358 0
-2881 2883 0
266 909 0
-2961 379 0
-466 465 0
-2056 256 0
-2734 -180 2736 0
-860 439 862 0
-373 -125 0
-150 149 0
-2655 353 2657 0
-1457 1460 0
-2240 2246 0
-1937 -315 1938 0
-704 -477 705 0
-240 0
-3149 220 0
-995 996 0
-3299 -387 3300 0
-596 476 0
-507 -4 0
-2302 2307 0
-1762 1763 0
-2390 287 2392 0
-2060 2069 0
3 512 0
-3311 3312 0
-1562 -479 1564 0
-1504 429 1506 0
-202 2968 0
-2064 2071 0
-103 1698 0
-1062 1063 0
-820 825 0
231 0
-954 -48 956 0
-882 886 0
-1125 1128 0
-444 1755 0
-2748 -435 2749 0
-2189 2197 0
-2917 2919 0
-663 664 0
-2859 2860 0
-495 248 0
-2460 162 0
62 1105 0
-892 461 894 0
-2366 -469 0
189 2866 0
-1959 359 1960 0
-61 1119 0
-1669 -358 1671 0
-421 2533 0
-112 1827 0
-730 731 0
-2906 -195 2908 0
-1497 1498 0
-2948 -353 0
-1893 -452 1895 0
-3244 -233 3246 0
-3046 3047 0
-1997 394 0
-1158 66 1160 0
-1375 1380 0
-3109 3112 0
-886 -442 0
-1564 1565 0
-840 842 0
-2110 -409 0
-675 680 0
-943 46 945 0
-354 2950 0
-320 319 0
-2680 377 0
-440 439 0
-1139 401 0
-2862 -363 2863 0
-3026 -436 3028 0
-763 -323 764 0
-641 -369 0
477 1013 0
-1285 1286 0
-907 909 0
-2094 407 2096 0
-1610 -313 1611 0
-3279 -237 3281 0
-1127 -370 0
-969 970 0
-3321 438 0
-1663 -101 1665 0
-3165 3166 0
-93 1543 0
-2994 -204 2996 0
-2193 -306 2195 0
-2616 173 2618 0
206 3007 0
-570 571 0
-2766 2767 0
-2119 2120 0
-1553 479 1555 0
-1094 1096 0
-1337 1338 0
-1804 -284 1805 0
-1036 1037 0
-1819 1823 0
-3232 264 0
-483 2152 0
-1720 -105 1722 0
-872 879 0
-649 399 0
-1491 -405 0
-377 -189 0
-2186 2187 0
-582 14 583 0
-415 687 0
-2171 2172 0
11 566 0
-2006 2010 0
-831 38 833 0
-489 3138 0
-26 684 0
-2163 -140 2165 0
-1028 250 1030 0
-1311 442 1312 0
-2538 167 2540 0
-3022 -208 3024 0
-1471 1472 0
-205 3018 0
-3020 3021 0
-3322 244 3324 0
-524 528 0
-1191 311 1192 0
-2316 2319 0
-2505 -164 2506 0
-46 45 0
-272 1917 0
-891 460 893 0
-69 1229 0
-2269 373 2271 0
-327 -113 0
-2750 182 2752 0
-1700 -390 1701 0
-414 413 0
-1824 305 1825 0
-1906 1907 0
-602 -265 604 0
-2430 2432 0
-3065 -294 0
-2408 -290 0
-2508 2512 0
-2732 435 2733 0
131 2054 0
-2266 2274 0
-1021 1024 0
-1264 1266 0
-1627 336 1628 0
-2031 2033 0
-2270 2276 0
-2695 179 2697 0
-544 545 0
-2093 2094 0
-75 1289 0
-82 81 0
-1254 385 0
-2813 187 2815 0
-3343 492 0
-1761 -466 0
-1133 -372 0
-3123 3124 0
-2960 378 0
-2040 2041 0
-1393 1394 0
-2646 174 2648 0
32 718 0
-2927 2928 0
-1456 1459 0
-1279 417 1280 0
-2508 -387 0
-1080 300 1082 0
-2996 -205 0
-2932 2934 0
-2306 395 2307 0
-678 679 0
-58 1067 0
-216 215 0
-1620 100 1622 0
-2923 -487 2925 0
-1742 445 1744 0
-660 -399 661 0
-2787 319 0
-2325 151 2327 0
-2994 2995 0
-2381 -258 2383 0
-1459 -371 1460 0
39 855 0
-1828 1829 0
-2999 3001 0
-528 -323 529 0
-453 -129 0
-143 2248 0
-866 870 0
-2955 2963 0
-1090 -299 0
-1072 -282 0
-1375 -283 0
-1978 -359 1979 0
-388 387 0
-385 -133 0
-1126 -369 1127 0
-130 0
-2537 166 2539 0
-1233 1234 0
-1975 -359 1976 0
-60 1091 0
-2114 137 2116 0
-2891 -193 0
-2121 454 2123 0
-2667 2669 0
-1215 1224 0
-752 325 753 0
-801 37 803 0
-3191 3194 0
-3034 472 3035 0
-919 44 921 0
-1520 1527 0
-1947 1948 0
-1300 1301 0
-1603 -97 1605 0
-1828 -113 1830 0
-2067 2068 0
-3089 3097 0
-56 55 0
-2792 2795 0
-1524 1529 0
50 976 0
-1602 1609 0
-3215 -229 3217 0
-1845 1851 0
-707 -279 0
-2014 2015 0
-1011 478 0
207 3030 0
-2161 275 0
-2433 158 2435 0
-1834 1838 0
-1430 1433 0
-2834 -343 0
-3084 -343 3085 0
-3049 212 3051 0
-1735 1736 0
-1260 -74 1261 0
-2201 2202 0
-2827 -188 2829 0
-190 189 0
-1093 1095 0
-2138 483 2140 0
-529 -324 0
-3231 3232 0
-1322 -78 1323 0
198 2930 0
-1317 1323 0
-1020 1021 0
-1446 371 1447 0
-2569 2570 0
-866 441 0
33 769 0
452 1884 0
-2528 -166 0
-2331 2334 0
-2692 -377 2693 0
-2321 -395 2322 0
-2472 -162 2474 0
-1087 1088 0
-2245 350 2246 0
-2012 -393 2013 0
-2636 2637 0
-3214 -228 3216 0
-291 -25 0
-1741 444 1743 0
-1932 1935 0
-2442 341 2444 0
-1621 100 1623 0
-738 -300 0
-2203 143 2205 0
237 3285 0
-780 345 781 0
107 108 463 464 465 466 0
-2398 2401 0
-2448 -160 0
-2237 2238 0
-1154 1155 0
-2761 2763 0
-1670 -359 1672 0
-3243 3248 0
-1274 1275 0
-44 912 0
-2296 2304 0
-2339 2348 0
-30 29 0
-2601 2607 0
-1300 77 1302 0
-1395 -83 1397 0
-574 575 0
-2343 2350 0
-2197 -305 2198 0
-1341 1342 0
-1221 348 1223 0
-475 702 0
-790 -36 791 0
-637 640 0
-3038 -208 3040 0
-1658 359 0
-2009 -393 0
-2429 2431 0
-2697 180 2699 0
-2128 2130 0
-1319 -441 1321 0
-2164 -273 2166 0
-2371 2372 0
-1346 1348 0
-8 555 0
-894 462 0
-317 2429 0
-2249 2254 0
-1709 1710 0
-3247 -295 0
305 2183 0
-626 627 0
-2074 -132 2076 0
-2055 255 0
-164 163 0
-947 949 0
-1529 1533 0
-1044 1053 0
-1505 429 0
-40 872 0
-1716 421 1717 0
-1009 1010 0
-1940 -317 0
-874 -42 876 0
-1792 285 1793 0
-389 -63 0
-115 1866 0
-1369 1377 0
-2543 2544 0
-3334 -246 3336 0
-1029 250 0
-737 -299 738 0
-1596 1600 0
-609 18 0
-1018 -477 1020 0
-329 -157 0
133 2089 0
-2080 -134 2081 0
-1901 1903 0
-659 -24 660 0
-2278 -146 2280 0
-287 2405 0
-2135 -455 2136 0
-2520 422 2522 0
-881 885 0
-2861 -190 2862 0
-1973 -360 0
-1910 1911 0
71 1224 0
-1275 418 1277 0
-2449 -160 2450 0
-1177 -268 0
-1248 1249 0
-1128 -369 1129 0
-171 2630 0
-4 3 0
-3060 3061 0
-2035 2037 0
-165 2529 0
-2278 2279 0
-2244 349 2245 0
-548 549 0
-3212 425 0
-588 -13 590 0
-2502 2507 0
-3127 3128 0
-2403 2405 0
-1212 -313 1213 0
99 1649 0
-2484 164 2486 0
-2776 -259 2778 0
-454 453 0
-2218 -143 2220 0
-2087 -287 2088 0
-138 137 0
-2332 431 2333 0
-3009 208 0
-2015 129 2017 0
-983 984 0
-1220 347 1222 0
-2215 329 2216 0
56 1026 0
-1586 1593 0
-988 990 0
-2696 179 2698 0
-2780 2781 0
-1008 477 1010 0
-1986 128 1988 0
-1590 1595 0
-2621 330 0
-105 1724 0
-1517 -429 1518 0
297 721 0
-2572 -486 2574 0
-3124 3129 0
162 2482 0
-67 1198 0
-2023 431 2025 0
-717 298 0
50 965 0
-2967 2968 0
-3296 -240 0
-1791 284 1792 0
-652 400 0
-2944 -310 0
-3220 -425 3221 0
-597 16 599 0
-85 1450 0
-3336 -457 0
-2005 2009 0
-25 683 0
-1683 390 1684 0
138 2138 0
-1498 92 1500 0
-1484 -90 0
-1930 318 0
-2252 2253 0
243 3322 0
-3250 -296 0
-1305 1309 0
-3318 243 0
-60 59 0
222 3155 0
-2889 -398 0
-3101 3102 0
181 2750 0
-387 -215 0
-3086 3087 0
-1348 -253 0
-428 427 0
-3183 -225 3185 0
-1881 452 0
-142 2218 0
-2917 488 2918 0
-757 -34 759 0
-1205 -312 0
-1330 -78 0
-463 1759 0
-1037 -250 1039 0
-957 958 0
-2726 182 2727 0
-1682 1685 0
-2507 2511 0
-2660 -175 0
-1995 392 1996 0
-480 479 0
-962 964 0
-1920 121 1922 0
-558 559 0
-1829 -114 1831 0
-2754 2755 0
-277 -209 0
-1613 -313 1614 0
-2956 204 2958 0
-7 554 0
-893 461 0
-3342 491 0
-761 -323 762 0
-2995 -205 2997 0
-86 1429 0
-365 -201 0
-625 626 0
-463 -93 0
-2941 2942 0
-3139 -491 3140 0
-2159 2160 0
-1858 1859 0
-2641 2645 0
-3270 237 3272 0
-73 1260 0
-692 693 0
-2241 2242 0
-3066 3068 0
-114 1838 0
-3008 3009 0
-2828 -188 2830 0
-1131 -370 1132 0
-1250 383 1252 0
-26 675 0
-2139 483 2141 0
-1099 -62 0
-361 -133 0
-34 33 0
-1901 482 0
-3173 225 3175 0
-1060 1061 0
-3013 3015 0
-618 -18 0
-975 50 977 0
63 1134 0
-2790 320 0
-2308 2309 0
-349 -123 0
-1152 -401 1154 0
-880 884 0
-2293 2294 0
-2784 185 2786 0
-195 2909 0
-402 401 0
-2806 -321 0
-2515 165 2517 0
-2473 -162 2475 0
-2676 2677 0
-1894 1895 0
112 1790 0
74 1269 0
-516 6 0
-1520 93 1522 0
-931 932 0
-171 2606 0
-825 -382 826 0
-3263 3267 0
-502 291 0
-133 2080 0
-1314 1315 0
-2035 -431 0
290 0
-532 533 0
-1749 -108 1750 0
-734 -32 735 0
-70 69 0
150 2324 0
-2713 -410 0
-2547 2548 0
-1628 337 0
-1325 -443 0
-3209 230 3211 0
-2028 2029 0
-1381 1382 0
-599 600 0
-293 -111 0
-2148 2149 0
-2411 157 2413 0
-3243 -233 3245 0
-1366 1367 0
-2915 2916 0
-68 1175 0
-669 248 0
-1272 76 1274 0
-1128 1131 0
190 2867 0
-2982 2983 0
-1553 1554 0
-8 7 0
-1034 1035 0
-875 -42 877 0
-1516 -429 0
-2930 199 2932 0
-3169 -224 3170 0
-1019 -478 1021 0
-2267 2268 0
-140 2187 0
-1527 94 1528 0
-924 291 926 0
-2851 -188 2853 0
-872 -41 874 0
-2911 -447 2912 0
-3070 212 3072 0
-1215 71 1217 0
-2152 -484 2153 0
-2174 142 2176 0
-376 375 0
-807 38 808 0
42 888 0
-3112 3115 0
-1101 1102 0
-1956 359 0
-2051 -467 0
-1683 1686 0
-2650 2651 0
-2231 -329 2232 0
16 606 0
-2027 -129 2029 0
-1948 -339 0
-233 3248 0
255 2056 0
-2521 422 2523 0
-148 2309 0
149 2303 0
-3172 224 3174 0
-1168 1169 0
-521 522 0
358 1659 0
-639 -22 0
-506 507 0
-19 625 0
-2055 2056 0
-44 43 0
-1337 251 1339 0
-2534 -423 0
-1500 427 1502 0
-588 589 0
-2784 2785 0
-3314 -413 0
-2002 2003 0
-1355 1356 0
-819 -38 821 0
-1113 1118 0
-141 2217 0
-2847 2850 0
115 1850 0
-1992 392 1993 0
-2589 2593 0
-3280 -238 3282 0
-2909 2911 0
-816 -37 818 0
-3152 3153 0
-1664 -102 1666 0
-1422 1423 0
-178 177 0
-1407 1408 0
-2914 2917 0
-1543 1547 0
-2956 2957 0
-1485 1488 0
-1470 403 1472 0
-2009 2013 0
-2016 129 2018 0
-3208 229 3210 0
-1888 -117 1890 0
-873 -41 875 0
-1744 446 0
-1314 -76 1316 0
-1721 -106 1723 0
-2255 -349 2256 0
-1610 1614 0
-1454 -88 0
-2319 2322 0
-1075 1076 0
-2652 351 2654 0
-3164 3169 0
-16 602 0
-2573 -486 2575 0
-1059 -57 1061 0
-1849 406 0
-1576 272 0
-848 -399 850 0
-644 22 646 0
-1366 -80 1368 0
-1117 371 1118 0
-1407 85 1409 0
-2657 354 0
-2926 -489 2928 0
-1787 283 1788 0
-3304 242 3306 0
-1598 314 1599 0
-719 298 720 0
-958 -312 0
-1789 285 0
-18 17 0
-16 615 0
-2049 2051 0
-484 483 0
-2793 321 0
-2816 2818 0
-562 563 0
-2758 2759 0
-2034 2036 0
-1387 1389 0
-183 2774 0
-2136 -456 0
-125 1998 0
-1735 107 1737 0
-2703 411 2705 0
-567 569 0
2 497 0
-2870 192 2872 0
-57 1085 0
-80 1367 0
-2883 2885 0
-1895 -453 1897 0
-1588 98 1590 0
-439 -27 0
-2058 258 0
-671 248 672 0
-3246 3247 0
-614 615 0
-2163 2164 0
-152 151 0
-1999 2006 0
-1459 1462 0
-997 998 0
-755 760 0
-2168 2170 0
-1764 1765 0
-964 357 0
-2769 260 0
-1052 281 0
-2090 135 2092 0
-2799 -185 2801 0
-759 762 0
-2674 178 2676 0
-2451 -339 2452 0
-1013 478 1014 0
-729 -297 731 0
-1573 270 1575 0
-654 -23 656 0
-3260 3261 0
-2549 -166 2551 0
-1821 305 0
-2530 -421 0
-3002 3004 0
-2598 2599 0
-2285 -373 2286 0
-1698 -104 1699 0
-1443 372 0
-1898 1899 0
-1967 -125 1969 0
-2238 2245 0
-375 -161 0
-1835 -303 1836 0
-1903 1905 0
-2081 2084 0
-1132 -371 1133 0
-2302 395 0
-1781 1787 0
171 2614 0
-1544 -449 1545 0
-858 42 860 0
-299 -45 0
-1983 127 1985 0
-1753 -444 1754 0
-818 824 0
-1578 -269 1580 0
-323 766 0
-144 2229 0
-3062 -212 3063 0
-1129 -370 1130 0
-52 1000 0
-1444 1449 0
-185 2807 0
-1597 313 1598 0
-3123 218 3125 0
-442 441 0
-1671 1672 0
-1142 402 1143 0
-1370 1371 0
-409 -163 0
-126 125 0
-1190 1194 0
-2918 489 0
-2029 -130 0
-971 972 0
-1038 -250 0
-1869 -407 0
-3167 3168 0
-1934 -122 0
-522 -5 524 0
-1114 64 1115 0
-2082 -286 0
-3287 3288 0
-3126 490 3128 0
-2768 2769 0
-1469 90 1471 0
-1636 1642 0
-1038 1039 0
-1587 97 1589 0
54 1008 0
-456 3121 0
-2424 -158 0
34 770 0
-2527 -165 0
-42 896 0
-1224 72 1225 0
-1625 1629 0
-3210 230 3212 0
-1299 77 1301 0
-2211 328 2212 0
-2334 2337 0
-28 686 0
238 3286 0
70 1194 0
-462 1333 0
-1288 1291 0
-2973 -204 2974 0
-184 2775 0
-1380 -284 0
-2633 -174 2635 0
-1473 1474 0
-431 -135 0
-3022 3023 0
-2221 -144 2223 0
257 2373 0
-895 -42 897 0
-1235 1238 0
-48 47 0
-2428 -318 0
-25 674 0
-384 1266 0
-2365 2367 0
-2852 -189 2854 0
-972 -357 974 0
-3074 3075 0
-2907 -195 0
219 3141 0
-416 415 0
-2600 -171 2602 0
-1723 1726 0
-2678 376 2680 0
-167 2553 0
-100 99 0
-776 782 0
-1386 301 0
-1003 1005 0
-702 704 0
-2125 -136 2127 0
-945 946 0
-3141 3142 0
-180 2735 0
-2124 456 0
-27 698 0
33 749 0
-468 467 0
-546 547 0
-369 -49 0
-2095 2096 0
-2028 -129 0
-1552 1557 0
-3208 3209 0
-2561 2562 0
-1306 78 1307 0
-3081 -214 0
-1770 -110 1772 0
-970 -50 972 0
-169 2577 0
-1227 349 1228 0
-1453 -88 1455 0
-2566 2568 0
-1137 1139 0
-1779 111 1781 0
-2929 2930 0
-1991 391 1992 0
-629 21 631 0
21 644 0
-1846 1847 0
-124 1946 0
-3281 -238 3283 0
-2264 2273 0
-1964 361 1965 0
-2768 259 0
-1051 280 0
-1972 -359 0
-2934 2936 0
-2816 188 2817 0
-769 34 771 0
-2063 134 2065 0
-1987 1992 0
-2996 2997 0
-887 42 889 0
-467 -137 0
-2710 -180 2711 0
-3059 3062 0
-22 21 0
-1442 372 1444 0
-3001 3003 0
-547 550 0
-2085 -287 0
58 1074 0
-3048 3049 0
-331 -199 0
-139 2186 0
-390 389 0
-1747 -107 0
-1486 -90 1487 0
-2406 2408 0
-820 -381 822 0
-1153 -402 1155 0
-919 920 0
-33 784 0
-849 -399 851 0
-2863 -364 2864 0
-3325 246 3327 0
-1954 126 1956 0
-1302 1303 0
-3305 242 3307 0
-3226 -230 3228 0
233 3239 0
-802 808 0
-726 -31 728 0
-2216 330 0
-1122 1126 0
-18 624 0
-1064 1067 0
-1685 390 1686 0
-351 2666 0
-806 810 0
-2016 2017 0
217 3123 0
-1618 99 1620 0
-786 -35 788 0
-3323 3328 0
-1836 1840 0
-2903 2904 0
-1189 1193 0
-2121 2122 0
-2127 -137 0
-2967 -202 2969 0
-2031 -429 0
-1823 304 1824 0
-1589 98 1591 0
-2908 2910 0
-52 989 0
-3068 -295 3069 0
-1236 1239 0
-2203 2204 0
-1178 1180 0
-904 265 906 0
-1707 106 1709 0
-2188 2189 0
-1541 1542 0
-97 1633 0
57 1053 0
-510 -291 511 0
-2571 2572 0
-1305 442 0
-2555 -445 2556 0
-867 439 868 0
-2665 -352 0
-2333 2336 0
-1308 1312 0
-2649 176 2651 0
-1529 450 1530 0
-904 907 0
-364 363 0
-34 763 0
-2039 465 2041 0
-605 16 607 0
-1415 86 1416 0
-876 -439 878 0
-2099 409 0
-666 671 0
130 2039 0
-1675 1676 0
116 1875 0
-834 40 0
-2872 395 2874 0
-1676 1680 0
-1441 371 1443 0
-729 736 0
-1609 -98 1610 0
-1156 1157 0
-5 538 0
-2763 2765 0
-2220 2226 0
-1276 1277 0
-494 495 0
199 2933 0
-32 31 0
-109 1770 0
-2170 -276 0
-2500 -164 2502 0
238 3275 0
-560 -381 0
-1545 -450 1546 0
232 3231 0
75 1298 0
-1343 1344 0
-858 864 0
-2815 2817 0
-2329 152 2330 0
-2592 2596 0
-2971 -204 0
-2581 -278 0
-785 790 0
-3259 332 0
-2635 2640 0
-1348 1350 0
-2560 -448 0
-1089 -60 1090 0
-2882 2884 0
-628 629 0
-2533 -422 2534 0
-2057 257 0
-166 165 0
-1395 1396 0
-1347 -252 1348 0
435 3014 0
-725 -31 727 0
-2355 467 2357 0
-1778 1779 0
-3007 3010 0
-1781 112 1783 0
-2315 -393 2316 0
-2545 2546 0
-2350 -432 2351 0
-3090 216 3092 0
-1911 -483 1913 0
-385 -125 0
143 2209 0
-1098 -61 0
-1566 -480 1567 0
-515 519 0
151 2329 0
-1822 303 1823 0
-2095 407 2097 0
-338 337 0
-2759 -469 2761 0
-3312 -242 0
-1298 76 1300 0
-1649 1650 0
-334 1102 0
-295 -219 0
-1426 -86 1427 0
-1470 1477 0
-1654 1656 0
-3003 -413 0
-1250 1251 0
-1008 1013 0
-508 -4 509 0
241 0
-2705 412 0
-6 5 0
-1474 1479 0
-3155 223 3157 0
-1528 449 1529 0
-3091 365 3093 0
-1012 1015 0
-472 471 0
-1837 1841 0
-2105 -136 2106 0
-2301 394 0
197 2929 0
-2782 184 2784 0
-214 3102 0
-655 656 0
-2104 2106 0
-140 139 0
-2441 340 2443 0
-908 267 0
-1389 1391 0
104 1704 0
-753 326 0
-3181 3182 0
-100 1645 0
163 2513 0
63 1114 0
-3301 3302 0
-698 -28 700 0
-669 670 0
-2519 2520 0
-837 399 838 0
-2100 410 0
-421 -127 0
-1877 1879 0
-294 3068 0
-2586 2587 0
-1697 1702 0
-2468 364 0
49 963 0
-971 -50 973 0
-409 2714 0
-2484 2490 0
-1886 1887 0
-1947 -338 0
-2711 2713 0
-2550 -167 2552 0
-864 439 865 0
-3142 277 3144 0
-2609 -309 0
117 1898 0
82 1382 0
-744 751 0
-1181 -270 0
-2720 2721 0
-1831 1836 0
-1653 102 1654 0
-3253 235 3255 0
-309 -183 0
-2474 -361 2476 0
-3088 3089 0
-70 1230 0
-285 -119 0
-533 8 0
-182 2746 0
-576 577 0
-1982 126 1984 0
-2083 2086 0
-2795 321 2796 0
-712 716 0
-2125 2126 0
-114 113 0
-2519 421 2521 0
-2204 2210 0
-959 960 0
-1154 -402 1156 0
-2130 2132 0
-2019 429 2021 0
-701 703 0
-2208 2212 0
-1979 -360 1980 0
-2814 187 0
-482 481 0
-1812 113 1814 0
-964 966 0
-1546 1550 0
-316 1941 0
-3167 -224 0
-1488 1491 0
-455 -167 0
-2255 2258 0
-684 -27 0
-3222 3223 0
-2309 -149 2311 0
-5 527 0
-2706 -178 2708 0
-3342 3343 0
-564 11 0
213 3086 0
-1879 451 0
92 1520 0
-2943 2944 0
-1860 1861 0
-1574 271 1576 0
-2685 2687 0
47 959 0
-64 1128 0
-784 -34 786 0
-1198 1199 0
13 594 0
-1889 -118 1891 0
-185 2824 0
-1438 1446 0
-2402 -287 0
-2582 170 2584 0
-844 -39 846 0
-960 963 0
-498 499 0
-3234 3239 0
-2694 2695 0
-2214 328 2215 0
-3219 -425 0
-36 35 0
-3165 -223 3167 0
118 1899 0
-814 384 0
-3101 -214 3103 0
-1689 -103 1691 0
-1053 58 1054 0
-2295 2296 0
-254 0
-2819 2821 0
-2148 -483 2150 0
-333 1101 0
-2415 2416 0
-1390 1392 0
-404 403 0
-1633 1634 0
-1332 1333 0
-1234 -347 0
-1653 1655 0
-88 87 0
-2177 2180 0
-1453 1457 0
-161 2497 0
-1746 -107 1748 0
-933 934 0
-1536 1543 0
-456 455 0
-2977 -378 2978 0
-1290 -417 1291 0
-357 -61 0
-2171 140 2173 0
-1540 1545 0
-2549 2550 0
-2126 -137 2128 0
-1342 254 0
-1377 -281 1378 0
-2341 -152 2343 0
-1063 1066 0
-2554 2556 0
-2150 2151 0
-1368 1369 0
-1678 389 0
-2856 -363 2858 0
-2957 377 2959 0
-1130 1133 0
-1712 1717 0
-119 1931 0
-1938 -316 0
228 3207 0
66 1159 0
-1414 327 0
243 0
-50 984 0
-1435 1436 0
-2984 2985 0
-2369 154 2371 0
-1555 1556 0
-1177 1179 0
-1326 -441 1327 0
-2969 2970 0
-770 779 0
14 595 0
-10 9 0
-1994 391 1995 0
-1363 282 1364 0
-2661 -176 0
-1782 112 1784 0
-1455 -371 0
-1866 -116 1867 0
-1726 -420 0
-331 -221 0
-2084 2087 0
-2007 -391 2008 0
-2269 2270 0
-2619 329 2621 0
-1960 360 1961 0
-1322 1326 0
-2389 2390 0
-378 377 0
-2147 2152 0
-333 0
-1481 -89 1483 0
-3199 -227 3201 0
-62 61 0
-1569 1570 0
-2151 2154 0
-2316 -394 0
-3118 3119 0
-333 -25 0
-1166 68 1168 0
-212 0
-2034 -430 2035 0
-2824 -186 2826 0
96 1586 0
-1258 -73 0
-1833 -304 0
-3103 3104 0
-2933 200 2934 0
-345 796 0
-2712 -409 2713 0
-2461 2463 0
-422 2535 0
218 3124 0
-2057 2058 0
-291 -15 0
8 547 0
-145 2254 0
-2523 2524 0
-2088 -288 0
-1535 -92 1537 0
-335 -85 0
-850 -400 852 0
-1741 1742 0
-3092 365 3094 0
-2389 156 2391 0
-774 345 776 0
-1368 -81 1370 0
-2964 378 2965 0
-2423 -157 0
-2528 2530 0
-3146 -277 3148 0
-2891 2892 0
89 1495 0
-2591 2595 0
-2313 -393 0
-2129 2131 0
-2496 388 0
-1762 110 1764 0
-1303 441 1305 0
-1409 1410 0
-2545 446 2547 0
-2958 2959 0
-2882 -192 2883 0
-2644 -331 2645 0
-2361 -152 2363 0
-2254 2257 0
-1797 -112 1799 0
-1506 430 0
-3182 3187 0
-2142 485 0
-2743 -433 2744 0
-709 710 0
-1291 1294 0
-2272 375 0
-1482 -89 1484 0
-3083 3085 0
-1429 -325 1430 0
-2867 191 2869 0
-1569 96 1571 0
-279 708 0
-2561 168 2563 0
-701 -476 0
-933 -45 0
-2783 2788 0
-1030 251 0
-1111 1117 0
-65 1162 0
-2988 411 2990 0
-2363 2364 0
-2935 309 2936 0
-352 351 0
-3045 -474 0
-834 836 0
-36 816 0
-3035 473 0
-1358 1361 0
-3257 236 3258 0
-2708 -179 0
-3092 3093 0
-654 659 0
-164 2509 0
-2310 2311 0
-1663 1664 0
-2801 -186 2803 0
-1732 -422 0
-1421 1426 0
-2077 -134 2079 0
-2450 2452 0
-1726 1729 0
242 3318 0
-944 947 0
-3217 3219 0
-1601 -96 1603 0
-664 -460 0
76 1299 0
-3160 224 3161 0
-172 2631 0
-289 -169 0
23 24 459 460 0
-518 6 519 0
-2497 2498 0
223 3160 0
-486 485 0
-1851 1855 0
-2818 2820 0
-1840 -305 1841 0
-1331 1332 0
-1346 -252 0
-3177 379 0
-1316 1317 0
-55 1058 0
-2450 -339 0
-882 -441 0
-213 3101 0
-71 1235 0
488 2919 0
-1618 1625 0
-1729 -421 0
-3300 -388 0
-616 617 0
-2165 2166 0
-460 901 0
-1140 1142 0
-1383 1384 0
-1865 1869 0
-2166 -274 0
15 605 0
-2188 -141 2190 0
-1021 -479 0
-1503 1504 0
-197 2937 0
-2267 148 2269 0
-1065 -279 1066 0
-2995 2998 0
-2319 -395 0
67 1182 0
-683 684 0
-1202 -70 1204 0
-942 -294 0
-1450 1451 0
-803 804 0
-678 -248 0
-525 -6 0
-2217 2218 0
-1951 125 1953 0
-1054 279 1055 0
-3292 388 0
-326 325 0
-2310 -149 2312 0
-1077 60 1079 0
-2312 -150 0
-2953 203 2955 0
-2600 2601 0
-896 -459 898 0
-2779 -261 2781 0
-1637 1638 0
-49 983 0
-1421 -85 1423 0
-2362 2365 0
-2928 -490 0
-91 1511 0
-218 3133 0
219 0
-2424 2426 0
-785 -35 787 0
-809 382 810 0
-1928 317 1930 0
-3171 -356 0
-3230 232 0
-3254 3258 0
-1000 1003 0
-460 459 0
243 3319 0
-538 539 0
-2734 2735 0
228 3196 0
-1448 373 1449 0
-523 524 0
222 3152 0
-994 54 996 0
-2569 -168 2571 0
489 3129 0
-2670 176 2672 0
-2617 2623 0
-2596 309 2597 0
-1372 1373 0
164 2514 0
-2737 2743 0
-3345 -491 3347 0
-590 591 0
-2139 2140 0
-293 -169 0
-128 127 0
104 1682 0
-1192 1196 0
-1352 81 1354 0
-579 13 581 0
-990 -390 0
-1959 1963 0
-2635 -329 2637 0
-21 640 0
-3289 3290 0
-3303 241 3305 0
-2804 2810 0
-657 658 0
-2854 -190 2856 0
-1779 1786 0
-1424 1425 0
-2253 -349 0
-777 778 0
-697 478 0
-989 -389 990 0
-204 2976 0
-2883 -395 0
-600 266 0
257 2058 0
-1627 1631 0
-224 3182 0
8 536 0
-1874 1875 0
123 1950 0
-2916 488 0
82 1360 0
-2141 484 0
-318 0
-449 -77 0
-2271 374 0
-2418 319 2420 0
-2504 -386 0
-1950 124 1952 0
-1163 -427 1165 0
-2729 435 0
-434 433 0
-512 513 0
-2708 2709 0
-1076 60 1078 0
-2046 2047 0
-2745 -435 0
-938 -292 0
-1057 282 0
-2322 -396 0
-94 1561 0
-3076 3077 0
-29 724 0
-273 -131 0
-2051 2053 0
17 611 0
-973 -357 0
-56 1035 0
-564 565 0
-2060 133 2062 0
-914 -266 916 0
263 3232 0
-2113 2114 0
-840 401 0
