p cnf 2883 5457
-102 101 0
-2 453 0
-947 948 0
-789 48 791 0
-1705 391 1707 0
-1714 1715 0
271 2719 0
-2037 -251 0
-709 712 0
-1938 1943 0
-804 -50 806 0
-11 525 0
-505 -10 0
-1730 431 0
71 1089 0
-1181 -277 1182 0
-174 2453 0
-760 47 762 0
-529 13 531 0
-1016 259 1017 0
-1488 314 0
-2467 176 2469 0
-2523 -233 2525 0
-1517 340 1518 0
-818 819 0
-2004 434 0
-2328 -369 2329 0
-2368 2372 0
-2167 417 2169 0
-2630 2631 0
114 1701 0
-1226 322 1227 0
-1848 1849 0
-1318 -88 1320 0
-2615 2616 0
-2001 432 2003 0
-749 -273 0
-283 2644 0
-321 -55 0
-2853 218 2854 0
-1642 -110 1644 0
-886 890 0
421 0
-2440 176 2442 0
-96 1460 0
-35 652 0
-1672 113 1674 0
-486 487 0
-2172 418 2173 0
-24 23 0
-1793 1798 0
149 2166 0
-2207 379 2208 0
-51 829 0
-2854 361 0
-1790 121 1792 0
-141 2067 0
-629 34 631 0
-408 2248 0
94 1412 0
-680 -426 0
-2269 233 0
-1394 1399 0
-854 855 0
-319 -33 0
-1287 -84 1289 0
-1813 -301 1814 0
-2403 2404 0
-1801 302 1802 0
-1320 1321 0
-1432 -96 1434 0
-1398 1401 0
-1799 303 0
-1035 68 1037 0
-1761 120 1763 0
-76 75 0
60 902 0
-181 2533 0
219 2881 0
-1383 1386 0
-1129 -413 1131 0
62 948 0
124 1826 0
-2166 150 2168 0
-1643 -110 0
-1450 1453 0
-2217 2220 0
143 2081 0
-2512 -438 0
-866 871 0
-2522 2523 0
-1633 1638 0
-2600 2603 0
-2115 2123 0
-1255 338 1256 0
-1090 1099 0
-1684 360 0
-2315 -164 2317 0
-2655 306 2656 0
-454 -3 0
-1356 1357 0
-961 -63 0
-2604 2605 0
-1822 1823 0
-1047 288 1048 0
221 0
-1331 401 1333 0
-1642 1646 0
-2005 -136 2007 0
-662 354 0
-960 -63 962 0
-771 298 772 0
-1357 -226 1359 0
-2190 2191 0
-2672 2676 0
-1138 245 1140 0
-2714 2716 0
-460 461 0
-369 -175 0
-1767 1772 0
-2081 144 2082 0
-2098 -314 0
-1305 1308 0
-2833 215 2835 0
-1165 276 1166 0
-215 2857 0
-2197 155 2199 0
-1614 -265 0
-465 467 0
-686 239 0
121 1796 0
61 927 0
-366 365 0
-131 1925 0
-42 691 0
-2019 2022 0
-50 49 0
313 2087 0
-547 411 0
-534 14 535 0
-895 896 0
-1662 1663 0
-1733 -429 1735 0
-80 1230 0
-161 2288 0
-1097 388 0
-1744 1745 0
-2680 196 2682 0
247 1746 0
-1754 -249 0
-2544 349 0
-568 18 570 0
-959 -62 961 0
-640 -33 0
-1356 -225 1358 0
-2813 -283 2814 0
-1025 1028 0
-2112 2113 0
-2879 2880 0
-2578 2579 0
-1750 -247 1752 0
-676 -387 0
-2816 213 2818 0
-762 48 764 0
-2179 2180 0
-87 1324 0
-1794 301 0
-1397 1398 0
-1159 1162 0
-151 2184 0
-1741 1746 0
29 610 0
-281 -141 0
-2062 2068 0
-497 500 0
-2420 295 2421 0
-1887 -416 1889 0
-2003 433 0
-618 -30 620 0
-2066 2070 0
198 2718 0
-2351 2352 0
-2012 -434 0
-340 339 0
-2051 2055 0
-2810 -212 0
-670 -354 0
-237 696 0
-1698 -359 1699 0
-1526 -339 0
-2104 -316 0
-2774 384 0
-2405 -271 0
-29 618 0
-2445 330 0
-1721 -393 0
-75 1145 0
-2176 2181 0
-479 8 0
-715 -43 717 0
-2180 2183 0
-1033 -261 1034 0
-415 -115 0
-775 -47 777 0
-1781 1784 0
-537 538 0
-1601 1607 0
-127 1870 0
-1753 -248 0
-1491 -99 1493 0
-836 -413 837 0
90 1346 0
-2857 -216 2859 0
-604 605 0
113 1680 0
4 461 0
-1371 1372 0
423 0
-240 1003 0
-1491 1492 0
-1173 -275 1175 0
-1973 1977 0
-2216 2219 0
-363 1872 0
-2158 2160 0
-1548 -102 1550 0
-1133 1136 0
-1958 1962 0
-1706 391 1708 0
-671 672 0
-1253 1256 0
-1083 -309 1084 0
-791 792 0
-1558 1559 0
-175 2458 0
-1741 247 1743 0
-644 -285 645 0
-314 313 0
-761 47 763 0
30 611 0
-796 798 0
-2727 296 0
-363 -101 0
-2321 -166 2322 0
-2588 2589 0
-2809 -212 2811 0
-858 859 0
-1086 -311 0
103 1540 0
-1681 357 1682 0
-2272 2273 0
-78 1199 0
-32 0
-732 46 734 0
-385 675 0
-1662 -110 1664 0
-491 -310 0
-444 445 0
-429 1736 0
-345 -71 0
169 2365 0
-910 911 0
-214 2829 0
-1950 -133 1952 0
-2722 2723 0
-1613 -108 0
83 1251 0
-261 1441 0
-2027 252 0
-198 2729 0
-1468 -279 0
109 1654 0
375 1544 0
-1883 418 0
-18 566 0
-2224 -381 2225 0
-698 -240 0
223 0
-1392 -392 0
-9 507 0
-1843 -328 0
-2127 2128 0
-116 115 0
-1885 1890 0
-1345 1346 0
-389 1390 0
-341 -111 0
-1728 1729 0
-1528 -102 1529 0
-2035 -250 2037 0
-2194 2195 0
-2818 214 2820 0
-526 -363 527 0
-1412 1413 0
-765 766 0
-1490 -99 1492 0
-2349 -168 2351 0
78 1162 0
96 1445 0
-1368 1375 0
-329 2464 0
-288 287 0
9 510 0
-2837 216 2838 0
-275 -67 0
-2135 -366 0
-1926 -359 1927 0
-2324 2327 0
-2386 2388 0
-325 -33 0
-1200 1201 0
85 1299 0
-1025 -259 0
-2569 -352 0
-1967 1968 0
-2377 -252 2379 0
-470 -5 472 0
-1072 310 1074 0
-1045 288 1046 0
-2119 366 2121 0
-422 421 0
-391 1720 0
-1074 311 1076 0
-553 17 555 0
-2180 -419 0
-1325 -373 1326 0
-289 -97 0
-2034 2035 0
-2516 2520 0
-1627 1635 0
-1029 1032 0
-1566 404 1567 0
-2625 254 0
217 2865 0
-1729 431 1731 0
-1823 124 0
-552 553 0
-2159 2161 0
-361 -145 0
373 1311 0
-90 89 0
-672 673 0
181 2538 0
72 1090 0
37 38 39 40 385 386 387 388 0
-842 224 843 0
-180 2532 0
-2484 2485 0
-1702 1703 0
-1000 -240 0
139 2019 0
95 1424 0
-1984 1990 0
-2168 2169 0
-2602 -397 2603 0
-910 -59 912 0
-2750 -317 0
-1988 1992 0
-68 1029 0
-245 -65 0
-2293 2295 0
-2536 2537 0
-1125 414 1126 0
-2379 -253 0
-736 274 738 0
-990 239 992 0
-1836 1837 0
-2598 -188 2600 0
249 2025 0
-1751 -247 1753 0
399 0
-2817 213 2819 0
-1174 1175 0
-1743 248 1745 0
-468 -4 470 0
-1252 1255 0
39 40 425 426 0
403 1566 0
-2204 2205 0
-387 -51 0
-1903 1904 0
130 1902 0
-1014 1019 0
-474 475 0
-2726 295 0
-409 -177 0
-476 6 478 0
-1953 -134 1955 0
-773 300 0
-479 481 0
-1487 313 1488 0
-2086 2089 0
-1304 1307 0
-2271 2272 0
-325 -99 0
-598 30 599 0
-599 601 0
-541 542 0
-1231 -81 1233 0
-1381 -92 1383 0
227 1582 0
92 1394 0
-82 1241 0
-2075 2076 0
-2118 365 2120 0
-752 -274 0
-64 63 0
-2563 -349 2564 0
-184 183 0
-666 668 0
-2138 2141 0
30 600 0
-554 17 556 0
-1676 1677 0
-1288 -85 1290 0
-1889 -417 0
-2142 2143 0
-2220 2223 0
-1726 429 1728 0
-1438 1441 0
-848 -223 850 0
-682 237 684 0
-2745 -200 2747 0
-572 20 0
-2361 419 0
-1028 -260 0
-2725 295 2727 0
186 2587 0
-151 0
-2232 407 2234 0
-1563 1567 0
-2243 -407 0
-1807 -122 1809 0
-577 -18 579 0
-47 780 0
-1417 96 1419 0
-1689 -114 0
-1810 1811 0
-1086 1088 0
-1855 348 0
-1280 355 1282 0
-2114 147 2116 0
-1012 260 1014 0
-15 560 0
-448 449 0
-2658 306 2659 0
-106 1610 0
-2704 438 2706 0
-1549 -103 1551 0
-1215 1216 0
-2071 -267 2072 0
-1214 81 1216 0
-735 273 737 0
-2065 -267 0
-1093 74 1095 0
-1598 1599 0
-1216 82 1218 0
-816 817 0
-2365 2366 0
-1340 1342 0
-354 353 0
-38 37 0
160 2267 0
-2780 -236 0
-79 1204 0
-1423 1428 0
-883 884 0
-976 427 0
-1661 324 0
-1340 -402 0
-66 998 0
-1456 278 1457 0
-758 -276 0
-478 7 0
-1617 -266 0
-1732 1733 0
-1490 1495 0
-1998 431 2000 0
-2036 -250 0
-2499 2500 0
-2422 -172 2424 0
-1232 1238 0
-2871 409 2872 0
-675 -386 0
-2594 398 0
-305 -173 0
-292 291 0
-1318 1319 0
-2482 -176 2484 0
-2867 2868 0
-775 780 0
-55 877 0
-1238 -321 1239 0
-2162 -394 2163 0
-2181 -418 2182 0
-100 1521 0
-2152 2153 0
-480 482 0
-303 -151 0
-121 1812 0
-1995 -407 1996 0
-1080 -72 0
-1972 1976 0
-1411 94 0
-992 240 994 0
150 2167 0
212 2816 0
-328 327 0
-679 -425 0
-1296 -357 0
-1980 408 0
-12 11 0
-1847 126 1849 0
-1306 373 1307 0
-2275 -264 0
-2286 2287 0
-1946 378 1947 0
-1639 1640 0
-1593 -230 0
-857 858 0
-2557 -184 2559 0
-1965 134 1967 0
-1624 1625 0
-958 402 0
-619 622 0
-1629 289 1631 0
-2744 318 0
-1046 289 0
-2215 -156 0
-1386 1389 0
-2283 304 2285 0
-2353 2354 0
-166 2324 0
-1706 1707 0
-234 -233 -232 -231 -160 -159 0
-2473 2474 0
-2688 334 0
159 0
-1917 -130 1919 0
-991 992 0
-2540 2541 0
-1623 -268 0
-1758 1759 0
-1728 430 1730 0
-592 593 0
-2666 2671 0
-659 660 0
-1267 -338 1269 0
-353 -51 0
-1006 67 1008 0
-156 2220 0
-1559 -378 0
-1245 82 1247 0
-2193 2194 0
-920 -354 921 0
-2316 -165 2318 0
58 873 0
-302 301 0
-1363 90 1365 0
84 1276 0
-704 257 0
-1308 1311 0
-1620 -267 0
-1493 1494 0
97 1474 0
-846 847 0
-2260 2261 0
-1613 1614 0
-304 2298 0
-831 832 0
-693 -238 695 0
-617 266 0
186 2576 0
-2366 251 2368 0
-991 239 993 0
-1595 1604 0
-988 -428 0
110 1655 0
-976 979 0
-436 435 0
-2205 2210 0
-734 741 0
-875 337 876 0
-2695 -331 2696 0
-1281 1282 0
-53 846 0
203 2758 0
-1848 126 1850 0
-2346 2355 0
-1266 1267 0
-387 677 0
-2815 2816 0
-2737 201 2739 0
-1043 1046 0
-2308 368 0
-2350 2357 0
-1989 -136 1990 0
-98 1490 0
48 790 0
-1333 1334 0
93 0
-2882 2883 0
-1864 -346 1865 0
-1535 -342 0
-985 -427 0
224 844 0
-2613 -188 2615 0
-412 -411 -14 -13 0
-1986 -405 1988 0
-845 226 0
10 511 0
-171 2422 0
-915 921 0
-1051 1060 0
-511 516 0
-1520 -100 1522 0
-1520 1521 0
-1345 90 1347 0
-165 2321 0
-1220 1224 0
-683 237 685 0
-1540 1542 0
-276 275 0
-1055 1062 0
-515 518 0
-590 344 0
-1467 1468 0
-820 821 0
-2292 2294 0
-578 583 0
173 2437 0
-1691 -114 1692 0
-2054 2058 0
-1650 1653 0
-2617 2618 0
-460 4 462 0
-2179 -418 0
-888 892 0
-1654 1655 0
-1927 -360 1928 0
-2379 2382 0
-829 -52 831 0
-1308 373 1309 0
-2610 422 2611 0
-410 409 0
-1252 337 1253 0
218 2866 0
47 769 0
-939 940 0
-2789 2790 0
-1784 1787 0
-1920 1926 0
-1068 72 1070 0
-598 600 0
-1322 1323 0
-1680 114 1681 0
77 1183 0
-78 77 0
-1439 -262 1440 0
-1385 1388 0
-2614 2619 0
-150 2160 0
-1909 1913 0
-2618 2621 0
-211 2823 0
-1162 275 1163 0
-1533 -340 1534 0
-2156 2157 0
-727 -259 728 0
-1452 1455 0
-1204 -80 1205 0
184 2571 0
-2696 -332 0
-1976 1980 0
-180 2523 0
-2219 2222 0
-2161 2163 0
-790 793 0
-1999 431 2001 0
-250 249 0
-2339 2342 0
27 0
-2524 2525 0
-2133 -148 2134 0
-295 -191 0
-1459 -96 1461 0
55 861 0
-292 2187 0
353 905 0
-1464 1471 0
-2216 -379 0
-924 927 0
-384 383 0
-462 463 0
-1691 1694 0
-2474 2480 0
-2685 332 2687 0
-2309 369 0
-1902 131 1904 0
-176 2483 0
-1752 -248 1754 0
-1229 1230 0
-2163 -395 0
-993 240 995 0
-495 10 497 0
-2080 313 0
5 464 0
-355 -71 0
-2541 2547 0
-514 515 0
-299 -55 0
-2063 2064 0
-2880 -410 0
-52 51 0
-2303 2311 0
-1359 1362 0
-172 171 0
-1809 -301 1811 0
-496 10 0
-897 898 0
-1842 -327 0
-344 818 0
-688 239 689 0
-1664 1665 0
-1119 74 1121 0
-581 582 0
-975 426 0
-1232 -82 1234 0
-413 -63 0
-701 702 0
-1630 289 1632 0
-1966 1973 0
-979 428 0
-1034 -262 0
-658 38 660 0
-2513 2514 0
-402 0
-1090 73 1092 0
-272 -271 -198 -197 0
23 588 0
-1329 88 1331 0
-1185 79 1187 0
-2033 2040 0
73 1119 0
135 1997 0
-306 305 0
-666 -38 0
-2318 2322 0
-2822 308 0
-625 -266 0
-2580 2581 0
-750 -46 751 0
-1832 -122 1834 0
-1632 290 0
167 2336 0
-1022 -67 1024 0
-116 1718 0
-2685 2686 0
-2491 -381 2492 0
-1768 120 1769 0
-1219 321 0
-2302 165 2304 0
-519 -10 521 0
-1560 104 1562 0
-2166 2167 0
-39 0
-898 901 0
86 1300 0
-2800 212 2802 0
-2632 2633 0
-1837 -325 1839 0
225 1351 0
-867 335 0
-1007 67 1009 0
-1023 1027 0
-1505 1512 0
-1586 1587 0
-2757 2759 0
-503 504 0
-2317 -165 2319 0
-2053 2057 0
-1175 -276 1177 0
-40 679 0
-1507 102 1509 0
-2593 397 2594 0
-26 25 0
-549 -16 0
-2654 305 2655 0
-245 1149 0
-2300 2301 0
-146 145 0
-2369 252 0
-615 265 617 0
-1453 1456 0
-471 -6 473 0
-32 624 0
-2503 437 0
-1645 -110 1646 0
-646 -286 647 0
-743 276 0
-2367 251 2369 0
-37 667 0
-999 -239 0
-2367 2368 0
-2256 435 0
-1941 134 1942 0
-2687 333 0
-43 744 0
-280 279 0
-1171 -78 1173 0
229 0
-1005 1006 0
154 2197 0
-2554 2555 0
-2378 -252 0
218 2855 0
-2751 -202 2752 0
-2176 -417 2178 0
-654 -336 0
-764 297 766 0
-551 -238 0
-1906 359 1908 0
-365 1874 0
-2709 -196 2711 0
-2023 250 2024 0
-2606 2607 0
-1509 339 1511 0
-1960 1964 0
-2199 2207 0
-1475 1484 0
-2442 2449 0
-1255 1258 0
-1417 1425 0
-1933 132 1935 0
-2516 234 2518 0
-2022 2025 0
-1241 -321 1242 0
-393 2162 0
-1479 1486 0
-1692 -357 1693 0
-1560 1561 0
-778 779 0
-2731 2733 0
-211 2812 0
-2809 2813 0
-2293 -303 0
-641 -34 0
-1725 429 1727 0
-946 -374 0
-1307 1310 0
-2274 2275 0
-931 372 932 0
-742 275 743 0
-291 2186 0
-1979 407 1980 0
-2815 212 2817 0
-132 1950 0
-2139 -366 2140 0
-1690 1693 0
-1389 1392 0
-2214 2218 0
-2620 -423 2621 0
-1432 1436 0
-912 913 0
-1292 -355 0
-122 1833 0
-2669 -194 2670 0
-417 2181 0
-1319 1326 0
-2074 -270 0
-2364 422 0
-1042 1045 0
-2591 2594 0
-97 1489 0
-1162 1165 0
-2129 2130 0
-614 32 616 0
-1347 1348 0
271 0
-868 336 0
-1933 1934 0
-1109 1112 0
-253 -179 0
-2425 -174 2427 0
-1414 1415 0
-2510 -437 0
-767 768 0
-124 1857 0
-1300 87 1302 0
-192 2662 0
-2016 2020 0
-1731 432 0
-2841 2846 0
135 1973 0
-446 3 448 0
-1539 1541 0
-321 -71 0
-2448 329 2449 0
-265 -55 0
-2068 2072 0
-2388 2390 0
-1202 1203 0
-1184 1193 0
-2766 -204 2768 0
-424 423 0
-1612 -108 1614 0
-866 335 868 0
-2218 -379 2219 0
-1783 -280 1784 0
-1903 131 1905 0
-2699 -333 2700 0
-2036 2037 0
-674 -385 0
-953 954 0
-2338 396 0
-2169 418 2171 0
-407 -149 0
-158 0
-554 555 0
-2873 -218 2875 0
-243 -41 0
-345 -89 0
-674 675 0
-2627 2629 0
-533 385 0
-2722 199 2724 0
-1156 1160 0
-105 1586 0
-200 2746 0
-2858 -217 2860 0
-182 2534 0
179 2513 0
-1865 -347 0
-2206 156 2207 0
-2147 393 2149 0
-1908 1912 0
-1103 390 0
-1203 1206 0
-2170 2171 0
-2694 2696 0
-1079 -71 0
-2048 2053 0
-1508 1509 0
-1990 1994 0
-721 -258 723 0
-264 263 0
-659 38 661 0
-1975 1979 0
-2025 250 2026 0
-2295 2297 0
-1349 226 0
-2538 2539 0
-1833 -123 1835 0
-2470 178 2472 0
-1176 1177 0
-2747 -201 2749 0
-638 -32 640 0
-2425 2429 0
-309 -19 0
140 2022 0
-2409 2410 0
-398 397 0
-2167 2172 0
-987 -427 988 0
-344 -343 -24 -23 -22 -21 0
-32 639 0
-1838 -325 1840 0
-1944 379 0
-898 353 0
-747 751 0
-2872 410 0
-2028 -138 2030 0
42 682 0
-1506 101 1508 0
-528 529 0
-2476 383 0
-1551 -104 1553 0
-2077 2078 0
-66 65 0
-1494 -311 0
-2088 315 2089 0
-2844 2845 0
-186 185 0
199 2736 0
-1678 1679 0
-2263 -435 0
168 2339 0
-190 2631 0
-1199 -79 1201 0
-2144 2145 0
-1918 -131 1920 0
-1440 1443 0
41 699 0
-1482 1483 0
82 1225 0
-719 -257 721 0
35 655 0
-238 237 0
-477 480 0
-1558 -377 0
-1452 278 0
-2342 396 2343 0
-33 642 0
-1360 -226 1361 0
-1534 -341 1535 0
-247 -105 0
-363 -51 0
-1603 267 0
98 1475 0
-1302 88 1304 0
106 1595 0
-400 969 0
-1538 103 0
-330 -329 -328 -327 -146 -145 -144 -143 0
-257 -29 0
-2177 -417 2179 0
372 933 0
-114 1713 0
-2341 2344 0
-765 297 767 0
-486 -7 488 0
-191 2661 0
-372 371 0
-1243 -323 1244 0
-1580 227 0
-1795 302 0
-2461 2464 0
-2484 -177 2486 0
-456 -4 457 0
-450 451 0
-921 -355 922 0
-1217 1218 0
-917 -355 0
-1342 1344 0
-157 2258 0
-2692 -196 0
-2834 2838 0
-40 39 0
-1809 1814 0
-39 678 0
-160 159 0
-1136 -416 0
-642 644 0
-1993 -405 1994 0
-1 452 0
-30 619 0
-2621 -424 0
-2662 -193 2664 0
-409 -195 0
-2159 -393 0
-2446 331 0
-2118 2119 0
-1876 1881 0
-1718 -391 1719 0
-752 755 0
-1769 279 1770 0
-2243 2245 0
-911 -60 913 0
-2486 2487 0
-222 -221 -2 -1 0
-294 293 0
-819 -346 0
-745 -45 747 0
-199 2745 0
-1223 1227 0
-147 2154 0
-1089 72 1091 0
-1195 300 1196 0
-51 815 0
-717 725 0
91 1393 0
-1911 360 1912 0
-802 -49 804 0
-346 345 0
-878 -57 880 0
-1100 387 1101 0
-764 771 0
-1497 -312 0
-1191 1192 0
175 2447 0
-364 1873 0
-2740 2741 0
-2553 352 0
-1301 87 1303 0
-1690 -357 0
-419 -157 0
-2236 409 0
-1435 -96 1436 0
-2146 150 2148 0
-1810 -301 0
-14 13 0
-754 -274 755 0
-2279 164 2281 0
-134 133 0
-859 860 0
-316 2536 0
-1626 1627 0
-2092 2093 0
-361 -203 0
-1388 1391 0
-1912 1916 0
-1011 259 1013 0
-2155 2158 0
-2475 2476 0
-1626 109 1628 0
-155 2238 0
-668 670 0
-1579 227 1581 0
-2090 -142 2092 0
-385 -25 0
-592 399 0
325 1828 0
-1513 1517 0
-2511 -437 2512 0
-1455 1458 0
-2475 382 0
-2656 307 0
-268 267 0
-2839 334 0
-993 994 0
-2222 2225 0
-467 286 0
-2542 2543 0
-2778 -208 0
-1760 1761 0
-1618 -265 1619 0
-235 2780 0
-2663 -193 2665 0
-2363 421 0
-582 -297 0
-964 -399 0
-2647 2648 0
-2289 2292 0
-37 671 0
-194 2673 0
-456 458 0
-2714 -439 0
-2480 383 2481 0
-2148 393 2150 0
-461 464 0
-824 412 0
-1278 86 1280 0
-525 -12 526 0
-2554 -182 2556 0
-1548 1549 0
-2280 164 2282 0
-1076 312 0
-1290 1292 0
-325 -49 0
-138 2029 0
-2781 2782 0
-1310 1313 0
87 1329 0
-1687 -113 1689 0
-108 107 0
-833 834 0
-2786 2788 0
-367 2327 0
-2879 -409 0
-125 1860 0
-1522 -101 1524 0
-1600 1601 0
-1299 1300 0
-2664 2670 0
-2122 148 2123 0
-2834 216 2836 0
-595 598 0
-1646 -289 1647 0
-1177 1182 0
-2387 2389 0
-2471 178 2473 0
-1902 1909 0
122 1821 0
-1544 376 1545 0
-2294 -303 2295 0
-1510 339 0
-782 785 0
-242 241 0
-1749 1750 0
-1371 390 0
-2574 2576 0
-1575 -404 1576 0
-1734 1735 0
-1500 -313 0
-139 2059 0
136 1998 0
74 1120 0
-795 319 796 0
-2501 2502 0
-1854 1855 0
20 0
-1335 1336 0
193 2653 0
-301 -97 0
-1616 1619 0
-1859 1861 0
-1319 -373 1321 0
-1563 404 1565 0
-1921 1922 0
-562 -17 0
-1679 1684 0
-1481 312 1483 0
-732 740 0
-536 386 0
-2850 217 2852 0
-1402 1403 0
-1890 -416 1891 0
-1522 1523 0
-2693 2695 0
-1222 1226 0
-115 1732 0
-1989 1993 0
-1183 78 1185 0
-317 2537 0
-1471 -278 1472 0
-822 823 0
-2294 2296 0
-309 1085 0
-564 566 0
-807 808 0
-207 2789 0
-133 1957 0
-2670 -305 2671 0
-134 1961 0
-263 -139 0
-2459 -329 2460 0
-401 -73 0
-1122 414 1124 0
-1656 1657 0
-932 934 0
-843 225 0
-2106 145 0
-412 411 0
-58 909 0
-1641 1642 0
-2485 -178 2487 0
-585 -298 0
-1912 361 0
73 1099 0
-1248 84 1250 0
-2228 157 2230 0
-279 -107 0
-2020 249 2021 0
-941 942 0
-1708 1709 0
194 2678 0
-1528 1532 0
-1124 1127 0
-71 1104 0
-2634 -254 2636 0
-653 -335 0
-1775 1776 0
-1911 1915 0
-2668 -306 0
-667 669 0
-2255 435 2257 0
-729 730 0
-2601 -188 2602 0
65 1005 0
219 2869 0
-2221 2224 0
132 1934 0
-874 336 875 0
-1110 -74 1111 0
-2202 379 2204 0
209 2797 0
-2313 369 2314 0
-1861 -345 0
-2330 2331 0
-746 -45 748 0
-945 -373 0
1 444 0
-1851 346 1853 0
-863 864 0
-1630 1631 0
-848 849 0
-2397 2398 0
189 190 191 192 281 282 283 284 0
-386 385 0
-2573 186 0
-113 1712 0
-611 31 613 0
-803 -49 805 0
-43 724 0
-1693 1696 0
-879 -57 881 0
-2401 -269 2403 0
-1231 1232 0
-2460 2463 0
-137 2028 0
-1557 -377 1559 0
413 1125 0
-142 2071 0
-421 2619 0
-2346 -167 2348 0
-72 1083 0
-521 -11 523 0
-2327 -368 2328 0
-936 -61 938 0
-2527 2530 0
-1121 413 1123 0
-2605 2610 0
-1190 300 1192 0
-2065 2066 0
-214 2841 0
-636 637 0
-2586 186 2588 0
222 0
-174 173 0
-1641 -109 1643 0
-2548 350 2549 0
-2652 2656 0
-641 643 0
-2410 2418 0
343 0
-681 42 683 0
-703 704 0
-2472 2479 0
-2414 2420 0
-1960 -379 0
-403 1575 0
-650 651 0
-1676 357 1678 0
-2539 2546 0
-2762 -202 2764 0
-2242 2244 0
-308 307 0
427 1399 0
-1237 1241 0
-2414 294 2416 0
-1357 1361 0
-1542 1544 0
-56 878 0
-2687 2688 0
-17 577 0
-1869 -127 0
-1616 -265 1617 0
-900 903 0
-69 1060 0
-360 359 0
-2479 382 2480 0
-28 603 0
44 708 0
-2692 2694 0
-275 -55 0
-2634 2635 0
-1236 -322 0
-2527 -235 0
-1565 405 0
-913 -353 915 0
-2178 -418 2180 0
-2002 433 2004 0
-1279 86 1281 0
-2248 -409 2249 0
-563 565 0
-2759 2761 0
-108 1640 0
-2701 2702 0
117 1758 0
-315 -151 0
-407 2246 0
-1420 261 1422 0
-710 259 0
-490 491 0
-196 2695 0
22 0
-28 27 0
-610 611 0
-2806 2807 0
-148 147 0
-2022 249 2023 0
-2826 2828 0
195 2701 0
143 0
-1339 1340 0
-1778 -279 0
-2400 -269 2402 0
-65 1020 0
-2106 2107 0
-389 -87 0
-1081 1083 0
-1685 -112 1687 0
-2873 2874 0
-207 2778 0
-1926 1930 0
-162 161 0
-744 745 0
-1527 1531 0
-2537 -318 0
-502 507 0
-1701 115 1703 0
-265 -75 0
-282 281 0
-2707 439 0
-1269 1274 0
-2171 419 0
-2064 -267 2066 0
-285 -17 0
-2314 370 0
-1376 391 1377 0
-1640 -109 1642 0
-1574 1577 0
-811 812 0
-2661 2662 0
-569 574 0
-1578 1579 0
-1149 -246 1150 0
-334 333 0
-2019 140 2020 0
-2608 2609 0
-1583 1585 0
-2728 2729 0
-2568 -351 2569 0
-387 1116 0
-1403 1408 0
-2024 2027 0
99 1504 0
-978 427 979 0
-2490 2493 0
-2733 2735 0
-1235 -321 0
-1914 360 1915 0
-1831 328 0
-1695 -358 1696 0
-2795 2796 0
-1075 311 0
-2013 2014 0
-1974 405 1975 0
-542 545 0
-2 1 0
-1070 309 1072 0
-1309 1312 0
-122 121 0
118 1759 0
27 594 0
200 2737 0
-394 0
-363 -113 0
-1382 -92 0
-601 244 0
-651 652 0
-1673 1681 0
-932 373 0
-2054 269 0
-2440 2448 0
-1496 1499 0
-2505 -178 2507 0
-1968 136 1970 0
411 826 0
-2067 -142 2068 0
94 1415 0
-136 135 0
36 656 0
-2354 -397 0
-718 719 0
-1088 -312 0
-195 2709 0
-2040 -250 2041 0
-2094 -144 2096 0
-256 255 0
-1777 -120 0
-1495 -100 1496 0
-345 -83 0
-781 784 0
-1367 92 1369 0
-2515 2516 0
-1868 1869 0
-843 845 0
-569 19 571 0
-2200 156 2202 0
-1631 1637 0
-451 258 0
-2582 2583 0
-1935 1936 0
-2097 2103 0
-2694 -331 0
-1619 -266 1620 0
-1153 1154 0
-2212 -155 2214 0
-1598 108 1600 0
-1536 1537 0
-172 2423 0
-1781 -280 0
-2649 2650 0
-2583 -369 2585 0
-341 -123 0
-916 -354 0
-835 -412 836 0
-1098 1103 0
-96 95 0
-1765 1771 0
-351 -195 0
224 0
-2659 307 2660 0
-1588 1589 0
-1316 -87 1318 0
-1287 1288 0
-2070 2074 0
-2383 170 2385 0
-80 1207 0
9 498 0
-2132 2135 0
-1107 1111 0
-2713 -438 2714 0
-1350 1353 0
-1852 346 1854 0
-2317 2318 0
-645 647 0
-2437 2438 0
-1952 1958 0
-434 2264 0
-2105 144 0
-2422 2423 0
-363 -71 0
-110 109 0
-1347 225 1349 0
-1835 -124 1837 0
-1570 -403 1572 0
-230 229 0
-1600 265 1602 0
79 1213 0
-955 956 0
-2533 -182 0
-1537 1540 0
-2607 422 2609 0
-2767 -351 2769 0
-2808 -211 2810 0
-1060 -70 1061 0
-522 -12 524 0
-1842 1843 0
-2509 2511 0
-2755 203 2757 0
-1080 1082 0
327 2109 0
-1819 -304 0
-565 -273 0
156 2227 0
-2556 2557 0
-379 -147 0
217 2853 0
-1885 -415 1887 0
-1205 1208 0
-2630 -190 2632 0
-2696 2698 0
-6 485 0
-965 -399 966 0
-1510 1511 0
-1503 -314 0
-623 -265 0
-283 -197 0
-2174 420 0
24 0
-622 -32 623 0
-1201 -80 1203 0
-273 -31 0
-1920 -132 1922 0
-595 29 597 0
-1938 377 1940 0
-1562 1563 0
145 0
-1638 292 0
-2810 2811 0
-1582 1584 0
-1102 389 1103 0
-922 -356 0
-2646 2653 0
-2411 2412 0
-90 1379 0
-400 399 0
-982 983 0
-846 -54 848 0
-1489 -98 1491 0
-204 203 0
-2018 249 0
-860 -246 0
-1531 1535 0
-1362 -228 0
-2667 -305 0
-1112 1115 0
-2079 2080 0
-2829 -307 2830 0
-813 -50 0
-347 -129 0
-213 2840 0
-325 -111 0
-2266 160 0
-949 63 951 0
-1524 -102 1526 0
-462 5 0
-1876 415 1878 0
-1105 -73 1107 0
215 2849 0
-401 1341 0
-2729 -199 2731 0
-2870 409 0
-159 2271 0
-587 23 0
-2800 2804 0
-2076 2081 0
-1377 392 0
-450 257 0
-335 -49 0
-2080 2083 0
-1545 377 0
-1673 114 1675 0
-2385 2386 0
-2385 171 0
-374 373 0
-2463 2466 0
-2390 2392 0
-1685 1686 0
-2510 2512 0
-2452 2453 0
-415 1890 0
-1670 1671 0
-918 -60 919 0
-1263 1271 0
-343 -35 0
-1568 406 0
-880 -58 882 0
241 1413 0
-785 788 0
-1996 -408 0
-1409 -429 1410 0
-1875 128 1877 0
-2777 424 0
-2128 -147 2130 0
-1723 -394 0
-2120 2121 0
-524 -363 0
-2190 -153 0
-1862 1864 0
-1940 1944 0
-244 859 0
-453 456 0
104 1542 0
-2262 -434 2263 0
-638 639 0
-2245 2247 0
-2276 162 2278 0
-1969 136 1971 0
-2187 2188 0
-44 745 0
-2832 2837 0
-1674 114 1676 0
-2855 361 2856 0
-2370 2373 0
-1258 339 1259 0
142 2076 0
-2227 157 2229 0
-1792 122 1794 0
-2297 2299 0
-181 2554 0
-1592 1593 0
-2689 -194 2691 0
-348 347 0
-2394 272 0
-1037 69 1039 0
-1717 1719 0
-1263 -84 1265 0
-1478 100 1480 0
-877 878 0
-1472 -279 1473 0
-2426 2427 0
-2585 -370 0
-532 14 0
-1260 1261 0
-2489 2492 0
-1002 1004 0
-16 15 0
-1923 -359 0
-1309 374 1310 0
-463 6 0
-76 1169 0
-2710 -437 2712 0
-908 -58 910 0
13 0
-2094 2095 0
-1608 268 0
-665 666 0
-2861 2862 0
-83 1287 0
-2351 -395 2353 0
-876 338 0
-2623 2626 0
-202 2763 0
-1738 -431 1739 0
-1333 402 1335 0
-1515 1519 0
57 893 0
26 0
-270 269 0
43 729 0
-1836 -124 1838 0
-1577 -406 0
-1571 -403 1573 0
-2188 -294 0
-1092 1100 0
-2748 2752 0
-609 -244 0
343 590 0
-39 673 0
-1644 1647 0
-151 2189 0
-117 1773 0
-322 321 0
-1227 323 1228 0
-2439 175 2441 0
-311 -79 0
-926 62 0
-299 -69 0
-1719 -392 0
-1959 -378 1960 0
-1696 1699 0
-2663 2664 0
-1292 1294 0
-387 -61 0
-1774 1779 0
-2173 419 2174 0
-465 285 0
-2783 2784 0
-1574 -405 0
-48 802 0
-2001 2002 0
-2397 -171 2399 0
-572 573 0
-111 1685 0
-1210 -300 1211 0
-1301 1302 0
-1059 1064 0
-1762 120 1764 0
-2835 2836 0
-556 18 558 0
-1427 263 1428 0
-1595 107 1597 0
-644 646 0
-1513 339 1514 0
-1955 -377 0
-453 -3 455 0
-573 297 0
-124 123 0
-1246 1251 0
-1434 -261 0
-784 787 0
-244 243 0
-915 -354 917 0
-193 2689 0
-1771 281 1772 0
62 929 0
287 1047 0
-2503 2504 0
-1856 1857 0
-2041 -251 2042 0
-1658 112 1660 0
-1113 -387 1114 0
-2278 163 2280 0
-620 -31 0
-1618 1621 0
-2350 -395 2352 0
-1861 1863 0
-2415 294 0
-296 295 0
-1282 356 1284 0
-2570 2571 0
-1868 -126 0
-2539 183 2541 0
-1923 1924 0
-1545 1547 0
-1084 -310 0
-1141 1142 0
-1609 -106 1611 0
-1206 -300 0
-2706 439 2708 0
-357 -89 0
-924 61 926 0
-903 906 0
-2526 -234 0
-2695 2697 0
-441 442 0
-1106 -73 1108 0
-965 967 0
-1991 1995 0
-1458 280 0
-1682 358 1683 0
-2273 -162 0
-1971 405 0
-99 1495 0
-84 83 0
-809 810 0
-1984 -136 1986 0
-2438 175 2440 0
-1275 1276 0
-1223 322 1224 0
-600 243 601 0
-2775 206 0
-2178 2182 0
-178 2491 0
-1008 68 1010 0
-1338 1341 0
-2787 255 2788 0
-1311 374 1312 0
-2151 395 2153 0
-2462 -330 2463 0
59 899 0
-1643 1644 0
-1024 -68 0
-1203 -299 0
-89 1378 0
-2109 2110 0
-98 97 0
337 1257 0
-218 217 0
-1001 1003 0
-1561 403 1563 0
-943 944 0
-1710 1711 0
-2536 -317 0
-821 826 0
-1379 -91 1381 0
-149 2158 0
-559 274 0
-317 -193 0
-906 355 907 0
-1530 1534 0
-805 -50 807 0
-2597 2598 0
-2021 250 0
-825 828 0
-2403 -270 2405 0
-2576 369 2577 0
-100 1498 0
-2239 2242 0
-2017 140 0
-868 872 0
-2254 434 2256 0
-1777 1778 0
208 2782 0
-2117 2124 0
-1131 1135 0
-2544 2545 0
-474 -285 0
-1897 1898 0
-2524 -233 2526 0
-669 -353 670 0
-1586 -106 1588 0
251 2371 0
-357 1697 0
-3 468 0
-1169 -77 1171 0
-1422 262 0
106 1579 0
-1275 84 1277 0
-969 -401 970 0
108 1625 0
-2441 176 2443 0
-2619 -422 2620 0
-1393 92 1395 0
-2728 -198 2730 0
-1056 -287 1058 0
-58 57 0
-2245 -408 0
15 16 237 238 0
-1323 1328 0
-2566 -349 2567 0
-2332 2333 0
-1961 -377 1962 0
-20 19 0
-1249 1250 0
-800 322 0
-101 1528 0
-1519 342 0
-303 2296 0
-1632 1633 0
-361 -153 0
-850 851 0
-1303 88 0
-2194 -349 0
-2399 2400 0
-2666 -305 2668 0
-157 2242 0
-859 -245 0
-1480 311 1482 0
-72 71 0
-2462 2465 0
-894 59 896 0
-192 191 0
28 0
-1499 1502 0
-1585 230 0
-2251 433 2253 0
-2845 -333 0
-383 -195 0
-1037 1038 0
-167 2355 0
-1804 1805 0
-1824 1826 0
-2143 149 2145 0
-158 2259 0
-1009 68 1011 0
-984 985 0
-2533 2534 0
-944 -373 946 0
-1751 1752 0
-1104 1105 0
-1607 267 1608 0
-1871 1872 0
-2654 2658 0
54 839 0
-1342 -403 0
-2388 269 0
-1830 327 1831 0
-637 288 0
-1051 -69 1053 0
-243 858 0
163 2300 0
-393 -133 0
130 1894 0
-163 2315 0
213 2831 0
-2121 367 0
-2391 270 2392 0
-2156 -149 0
-1239 1243 0
-2306 2307 0
-64 981 0
-2393 271 2394 0
-331 -181 0
-1544 1546 0
-170 2396 0
-148 2155 0
-1512 102 1513 0
-1599 265 1601 0
-639 642 0
-824 825 0
-362 361 0
75 1153 0
-183 2578 0
-1615 -108 1616 0
-726 -258 727 0
-10 520 0
-1304 373 0
-1003 -241 1004 0
-503 -9 505 0
-2135 2138 0
-706 709 0
-1230 -81 1232 0
155 2206 0
-1055 -287 1057 0
-1351 226 1352 0
-136 1993 0
-1716 1718 0
-1658 1659 0
-1011 1012 0
-499 325 500 0
-2701 196 2703 0
-2843 -216 2845 0
-2411 174 2413 0
-492 493 0
-2237 410 0
-1872 -364 0
-673 -40 0
-1341 -402 1342 0
-92 1403 0
-2808 2809 0
-4 469 0
-189 2638 0
399 593 0
-1211 -301 1212 0
328 2110 0
-830 -411 832 0
-2785 210 2786 0
-1603 1608 0
-2360 168 0
-2574 186 2575 0
-1865 1867 0
-2108 2109 0
-1083 1085 0
-679 680 0
-2875 2876 0
-1986 1991 0
-2052 267 2053 0
-1446 1447 0
-164 2294 0
-1594 106 1596 0
-1145 1146 0
-1928 1932 0
-811 -321 0
-2788 256 0
-2819 214 2821 0
-1208 1211 0
-2175 2176 0
-558 273 0
-746 747 0
-201 2762 0
-309 -33 0
-731 732 0
-2095 -313 2097 0
-834 -413 0
-2280 2281 0
419 2362 0
-2589 188 2591 0
-2113 147 2115 0
-813 814 0
-2070 -269 0
-1580 1581 0
-2676 -308 0
-2740 202 0
-2347 2348 0
-336 335 0
-1059 -289 0
-2538 182 2540 0
-501 -8 503 0
-2584 -369 0
-1092 74 1094 0
-1111 -387 1112 0
-2730 2731 0
-692 -237 694 0
111 1670 0
-865 866 0
-2678 195 2680 0
-1364 91 1366 0
-1525 1530 0
-2238 -156 2240 0
-2492 2495 0
-2690 -195 2692 0
-55 856 0
187 2604 0
-443 222 0
-2797 2798 0
-831 -411 833 0
-2015 2016 0
-441 2 0
-645 -286 0
-1052 1053 0
-896 60 898 0
-2125 367 2126 0
-1222 321 1223 0
-2387 172 2388 0
-1014 261 0
-1115 1118 0
-653 654 0
-2849 2850 0
170 2384 0
-1420 1421 0
-1119 1120 0
-1498 1501 0
117 1740 0
-184 2566 0
-2669 2673 0
-1240 1244 0
-1825 325 0
-909 -59 911 0
-720 721 0
-1405 -428 1407 0
-258 257 0
-269 -161 0
-1565 1568 0
162 2277 0
-540 544 0
-400 -399 -26 -25 0
-1249 84 0
-783 786 0
-2549 351 0
228 1584 0
-1789 1796 0
-2517 2518 0
-1870 1871 0
-128 1885 0
-1128 -74 1130 0
-1273 -339 1274 0
-1554 1555 0
-2044 141 2046 0
-1862 -345 1863 0
-1742 247 1744 0
-310 309 0
-1572 -404 1574 0
-792 794 0
-1617 1620 0
-115 1716 0
138 0
-2584 2585 0
-430 429 0
-1155 1156 0
-1897 -130 1899 0
-2384 2387 0
-217 2873 0
-1379 1384 0
-633 286 635 0
-2590 188 0
-1394 427 1396 0
-2158 -150 2159 0
-2635 -255 2637 0
-2651 2652 0
-1020 -66 1022 0
-1170 -77 1172 0
-1396 428 1398 0
-2771 2772 0
-297 786 0
-1700 114 1702 0
-2756 2757 0
-1375 390 1376 0
-1951 -133 1953 0
-862 869 0
-1289 1290 0
-565 567 0
-2518 2521 0
-1077 -70 1079 0
-2487 -381 0
-1629 1636 0
-2596 2601 0
-208 2790 0
-2677 194 2679 0
204 2771 0
-837 -414 0
-1671 113 1673 0
-2823 2824 0
-2627 255 0
-705 708 0
-2765 -204 2767 0
-265 -67 0
-2107 146 0
-112 111 0
-1234 1239 0
-694 695 0
-847 -223 849 0
-1040 287 0
-2795 -255 0
-1727 430 1729 0
-1782 -279 1783 0
-232 231 0
-1461 1462 0
-2455 -176 2457 0
-1759 1768 0
-1943 1947 0
118 1741 0
-1724 1725 0
-2412 293 2414 0
-2259 -433 2261 0
-1763 1770 0
-1844 1845 0
-761 762 0
-2718 271 0
-1516 339 1517 0
65 989 0
-284 283 0
67 1035 0
-130 1918 0
-2558 2559 0
-1453 277 1454 0
-143 2100 0
-4 458 0
-405 -115 0
-345 -101 0
-2109 328 0
-2115 148 2117 0
-200 2734 0
-1400 429 1401 0
-271 -179 0
-1967 135 1969 0
-1775 -119 1777 0
-515 363 0
-2758 204 2759 0
-2745 2746 0
-1720 1722 0
93 1414 0
-332 2699 0
-209 2806 0
-2565 2569 0
-496 497 0
-2045 2046 0
-2560 -349 0
-74 1129 0
-2030 2031 0
-2014 139 2016 0
145 2112 0
-621 623 0
-2413 2414 0
-482 309 483 0
-2319 -166 0
-112 1668 0
-684 688 0
-86 85 0
-442 221 0
171 2407 0
-1578 106 1580 0
-206 205 0
-1374 389 1375 0
-2165 -396 0
-225 1360 0
107 1604 0
-2623 253 2625 0
-793 795 0
327 0
-735 736 0
-81 1260 0
-1670 112 1672 0
-608 -243 0
-493 498 0
-1254 337 1255 0
-1823 1825 0
-1788 120 1790 0
-2075 142 2077 0
-2532 2533 0
-2556 -183 2558 0
-2329 -370 0
-2117 365 2119 0
-1647 1650 0
-154 2192 0
-1412 241 0
-1759 119 1761 0
-770 297 771 0
-2160 -393 2161 0
-1474 98 1476 0
-2599 2600 0
-1441 -262 1442 0
-2368 252 2370 0
-927 929 0
-718 -44 720 0
-1170 1171 0
-95 1459 0
-1964 -380 0
-251 2380 0
-2555 2562 0
-161 2273 0
-2782 2785 0
-783 -297 784 0
-470 471 0
63 971 0
-1445 97 1447 0
-1295 1297 0
-273 756 0
-2134 -365 2135 0
-733 46 735 0
-1874 -366 0
-63 980 0
-2852 218 0
-2303 166 2305 0
-533 536 0
-2082 2085 0
-2754 202 2756 0
-1597 1605 0
184 2550 0
-838 839 0
-2567 -350 2568 0
-583 -20 584 0
-2326 -369 0
11 528 0
-2392 2394 0
-180 179 0
-963 965 0
-2454 2455 0
-1307 374 0
-2212 2217 0
-2679 195 2681 0
-1672 1673 0
253 2626 0
-647 649 0
-2439 2440 0
-1792 1793 0
-2651 305 0
-1492 1496 0
172 2408 0
-1434 1437 0
-538 -13 540 0
19 0
-1612 1616 0
89 1363 0
-594 28 596 0
-110 1648 0
-2263 2265 0
-2522 -180 2524 0
-1859 -126 0
-1077 1078 0
-2604 188 2606 0
-511 11 513 0
-135 2005 0
-913 920 0
164 2301 0
-1470 -277 1471 0
-1864 1866 0
-839 842 0
133 1941 0
214 2832 0
-917 922 0
-751 -273 752 0
-723 -259 0
-513 517 0
-1043 288 0
-1212 -302 0
204 2760 0
-1281 355 1283 0
-2713 2715 0
197 2720 0
-2502 437 2504 0
-1265 -337 1267 0
-838 54 840 0
-2698 2700 0
76 1154 0
-1712 -114 1714 0
13 546 0
-1813 1817 0
-1159 78 1160 0
-1758 118 1760 0
-2026 251 2027 0
-1594 1595 0
-1610 -107 1612 0
-1217 82 1219 0
-41 690 0
-1934 1941 0
-1879 416 0
-2361 2362 0
-2108 327 0
-2843 2847 0
-350 349 0
-2488 -178 2489 0
-2045 141 2047 0
-2009 -432 2010 0
-1330 401 1332 0
-2628 255 2629 0
-193 2669 0
-1719 1721 0
-888 -337 0
-154 153 0
-879 880 0
-539 -13 541 0
-999 1000 0
-2016 140 2018 0
-1766 1767 0
-2491 2494 0
-177 2505 0
-2295 -304 0
-19 583 0
-1364 1373 0
-2789 -208 2791 0
-2616 2620 0
-1269 -339 0
-2724 200 2726 0
134 1966 0
-195 2693 0
-1013 260 0
-2863 2864 0
-806 -319 808 0
-2399 -172 2401 0
-1322 -374 0
-2702 437 2704 0
-67 1050 0
101 1536 0
-356 1297 0
-1201 1205 0
-2268 2269 0
-1479 311 1481 0
-1904 132 1906 0
-403 -91 0
-512 11 514 0
-801 802 0
-1492 -100 1494 0
-34 651 0
-399 967 0
-153 2191 0
-324 323 0
-651 -35 0
-2578 -184 2580 0
-926 928 0
-2193 -348 0
-642 -34 643 0
-2652 306 0
223 842 0
-95 1435 0
-2611 423 2612 0
-973 974 0
-2116 148 2118 0
-7 501 0
-348 2194 0
-423 -195 0
329 0
-2449 330 2450 0
-1655 111 1657 0
-2003 2004 0
-2851 217 0
-2564 -350 2565 0
-2770 2771 0
-1611 -107 1613 0
-2469 2470 0
-902 353 903 0
-2068 -267 2069 0
-1687 1688 0
-1069 72 1071 0
-1827 1829 0
-1187 80 1189 0
-120 1805 0
-2352 2358 0
32 627 0
-2133 2136 0
-1637 291 1638 0
-646 648 0
-1663 -111 1665 0
-1486 312 1487 0
-2184 -152 0
-1310 375 0
-756 -274 757 0
-1225 321 1226 0
-1957 1961 0
6 466 0
-2437 174 2439 0
-2372 253 2373 0
-2320 2323 0
-132 1929 0
-753 -273 754 0
-2262 2264 0
-1053 1061 0
-852 -225 0
-1057 1063 0
-1300 1305 0
-349 -163 0
-298 297 0
-1157 78 0
-889 -335 890 0
-418 417 0
-580 584 0
-1143 1144 0
144 2106 0
-1711 394 0
-1667 1669 0
-1609 1610 0
-2802 283 0
-2865 218 2867 0
-1196 301 1197 0
-650 -34 0
-2376 2377 0
-301 -109 0
-1469 -98 1470 0
-2697 2699 0
-514 12 0
-1760 119 1762 0
-967 969 0
-2686 333 2688 0
-2443 2444 0
21 0
81 1245 0
-2641 -281 0
-432 431 0
-1797 1801 0
-1871 -363 0
-672 -39 0
-79 1229 0
-1715 -116 0
-2097 -314 2099 0
-2564 2568 0
-1277 1278 0
-2506 2509 0
-431 2009 0
-781 -297 782 0
-1899 -341 0
-265 -89 0
-1922 1927 0
-1382 1383 0
-1484 100 1485 0
-192 2641 0
-809 -320 811 0
-447 4 449 0
-110 1663 0
-409 -205 0
-220 219 0
-779 -297 0
-2508 -436 0
-1832 1833 0
-1466 -278 1468 0
-833 -412 0
16 553 0
420 2363 0
-272 271 0
-1579 1582 0
-2196 154 2198 0
-392 391 0
-1899 1900 0
-1192 301 0
-1908 360 0
-1740 118 1742 0
-2265 -436 0
-2799 211 2801 0
-393 -127 0
-1477 1485 0
-1419 1426 0
-2428 2431 0
-2640 -192 0
-1646 1649 0
-2231 407 2233 0
-2613 2614 0
-1481 1487 0
-2828 -307 0
-1123 414 0
-1956 -378 0
-1951 1952 0
-1466 1472 0
-188 2614 0
-2718 2719 0
188 2605 0
-762 770 0
-406 405 0
-1713 1716 0
-766 772 0
70 1044 0
-1129 1134 0
-589 590 0
209 2785 0
-1461 -97 1463 0
-2447 176 2448 0
-1657 112 1659 0
-85 1291 0
-2609 423 0
-346 1866 0
-74 73 0
-126 1869 0
-469 -5 471 0
-194 193 0
-2752 -317 2753 0
-923 60 925 0
-2492 -382 2493 0
-1039 1040 0
-1806 1807 0
-1968 1974 0
-1321 1327 0
-667 -38 668 0
-1945 377 1946 0
-798 321 0
197 0
-506 -325 0
-1259 340 0
-2739 2743 0
-246 245 0
-1753 1754 0
-1942 377 1943 0
-1106 1107 0
-2335 2338 0
-1766 280 0
-1644 -289 0
-1873 1874 0
-2035 2041 0
-2419 294 2420 0
-1091 1092 0
-516 12 517 0
-448 4 450 0
-2640 2641 0
-2496 -384 0
-2772 206 0
-367 -153 0
-2241 -158 0
-1820 1821 0
439 0
-1620 1623 0
-2408 173 2410 0
64 972 0
-1583 229 0
-2707 2708 0
-2703 437 2705 0
-2820 307 2822 0
220 2882 0
-1867 -348 0
-849 -224 851 0
-380 379 0
-2155 -149 2157 0
-2712 2714 0
-1040 1043 0
-2007 2008 0
-2746 -201 2748 0
-215 2846 0
-365 -131 0
-2008 -432 0
-2757 204 0
-1507 1513 0
-1425 261 1426 0
-1905 132 1907 0
-782 -298 0
-1812 1816 0
326 1830 0
-2330 166 2332 0
-2493 -383 0
-1717 -391 0
-2805 284 0
-1005 66 1007 0
-197 2728 0
-2059 2060 0
-2049 267 0
-630 631 0
-2137 2140 0
-708 711 0
-168 167 0
-893 894 0
-2662 2669 0
-1660 1661 0
-1013 1014 0
-1175 1181 0
277 1456 0
-1233 -82 1235 0
-2292 -164 2293 0
-1963 -379 1964 0
-1826 325 1827 0
-1460 -97 1462 0
-1656 111 1658 0
-2229 158 2231 0
-191 2640 0
-363 -59 0
-1242 -322 1243 0
-613 32 615 0
-1065 1066 0
-315 -163 0
-1410 -430 0
-1085 1087 0
-1627 110 1629 0
-885 889 0
127 1875 0
-1794 1795 0
45 759 0
-1147 1148 0
-84 1288 0
-1132 1133 0
-237 551 0
-2681 2682 0
-1530 -340 1531 0
-493 9 495 0
-1290 -86 0
-70 1078 0
119 1768 0
23 0
-733 734 0
-972 977 0
-2201 2208 0
-2268 232 0
-2282 2283 0
-730 739 0
-2423 -173 2425 0
-1981 1982 0
-2552 351 2553 0
-769 48 770 0
-2203 380 2205 0
-2483 -177 2485 0
-2811 2814 0
-457 -257 0
-1082 -309 0
-2349 2350 0
-1450 98 1451 0
-1588 -227 1590 0
-174 2431 0
-118 1774 0
-2169 2173 0
-2716 -440 0
-509 -326 0
-2182 -419 2183 0
-2786 255 0
-142 141 0
-187 2613 0
-867 868 0
-1449 1452 0
-744 -44 746 0
206 2773 0
192 2646 0
-1822 123 0
-745 750 0
-1973 136 1974 0
-169 2374 0
-147 2133 0
-749 752 0
116 1725 0
-2864 -362 0
-71 1081 0
137 2013 0
-1054 1055 0
-1216 1222 0
-996 242 0
-96 1438 0
-694 -238 0
-1172 -78 1174 0
-970 -402 0
-2851 2852 0
-1826 1828 0
-2760 351 2761 0
-1121 1122 0
-1888 1889 0
-2587 187 2589 0
-2671 2675 0
-2217 -156 2218 0
-1286 358 0
-1489 1490 0
-464 466 0
-2256 2257 0
-1955 1956 0
-1343 -403 1344 0
165 2330 0
-1251 1254 0
-1313 376 0
-1112 -388 0
-391 -103 0
-689 240 0
-2018 2021 0
-60 936 0
-1324 -88 1325 0
-2384 171 2386 0
-427 1408 0
-1556 1557 0
-2050 268 0
-1873 -365 0
-774 775 0
-312 311 0
-259 -55 0
-2486 -178 0
-1619 1622 0
-155 2217 0
-329 -151 0
171 2387 0
-2085 2088 0
-1442 -263 1443 0
-518 364 0
12 529 0
-1224 323 0
-2100 -144 2101 0
-961 962 0
-1428 264 0
-2339 395 2340 0
-966 968 0
-908 909 0
-872 337 0
-1605 265 1606 0
-1190 1196 0
-1811 1815 0
-2736 200 2738 0
-1972 406 0
-1678 358 0
-119 1779 0
-2301 165 2303 0
90 1364 0
-2840 -214 2842 0
320 0
-1010 259 1012 0
-433 2262 0
-2825 2826 0
-339 -89 0
-1095 1096 0
-1878 1882 0
-2069 -268 2070 0
-792 50 0
-2730 -199 0
-1141 246 1143 0
-1091 73 1093 0
-1158 1161 0
-722 -258 0
-2417 174 2418 0
-2712 -438 0
-1463 1464 0
-109 1662 0
-681 682 0
-1460 1469 0
-2230 2231 0
-1785 -280 1786 0
-1981 -134 1983 0
-2753 -318 0
-2050 2054 0
-763 764 0
-729 44 731 0
170 2366 0
-1569 -104 1571 0
-748 749 0
-2773 383 0
-2632 -253 2634 0
-895 59 897 0
-286 285 0
144 2084 0
-1467 -278 0
-2860 -218 2862 0
-1118 -390 0
-1191 300 0
-700 43 702 0
-1355 1360 0
-815 816 0
-766 298 768 0
-2111 330 0
-702 44 704 0
-935 936 0
-139 2038 0
136 1977 0
-2427 2430 0
-484 -6 486 0
-1780 1783 0
-2747 2748 0
-820 52 822 0
-1965 1966 0
-377 -113 0
-567 -274 0
-420 419 0
-114 1694 0
-702 706 0
-2309 2314 0
-2838 333 2839 0
-1448 98 0
-2032 2033 0
-2616 -422 2618 0
-2799 2800 0
-2043 140 2045 0
-1069 1070 0
-2211 -154 2213 0
-122 1816 0
-2063 -142 2065 0
-2157 2159 0
-2494 -382 2495 0
-2600 -397 0
-208 207 0
-894 899 0
-1892 -418 0
-2291 -164 0
-1328 -376 0
-632 285 634 0
-2812 -212 2813 0
25 0
-36 664 0
-2612 424 0
-2804 283 2805 0
102 1537 0
-2467 2468 0
-795 797 0
-737 738 0
-899 60 900 0
-728 -260 0
-1504 1505 0
-1031 -261 0
-77 1198 0
-260 259 0
-425 680 0
-2291 2293 0
-1213 80 1215 0
-2534 2535 0
-2355 -168 2356 0
-383 -185 0
-1992 -407 0
-1327 -375 1328 0
-709 258 710 0
-1571 1572 0
-682 687 0
-1285 357 0
-1628 110 1630 0
-64 965 0
-1339 -401 0
-929 931 0
-1172 1173 0
-2306 367 2308 0
194 2657 0
-1754 1757 0
-1939 1940 0
-962 -64 0
182 2539 0
-2405 2406 0
-394 393 0
75 1137 0
-1160 275 1161 0
-183 2562 0
215 2837 0
-2261 -434 0
-1821 1824 0
-2424 -173 2426 0
-1398 429 0
-823 412 825 0
-577 578 0
-1176 -276 0
-2773 2774 0
-2258 -158 2260 0
51 820 0
-1747 249 1748 0
-797 320 798 0
132 1913 0
-359 -125 0
-92 1387 0
-2840 2841 0
-182 181 0
-1411 1412 0
-856 -56 0
-2733 -295 0
-1812 -122 1813 0
-707 710 0
-1399 428 1400 0
-599 243 0
-2441 2442 0
-2814 -284 0
-648 -287 649 0
-1200 -79 1202 0
-1774 -119 1776 0
-2497 178 2499 0
-483 310 0
-1478 1479 0
-981 -425 983 0
-531 535 0
-234 233 0
-712 259 713 0
-2846 -216 2847 0
-2323 2326 0
-768 299 0
-1601 266 1603 0
-113 1691 0
-1975 406 1976 0
-1079 1080 0
-233 2528 0
-316 315 0
-2013 138 2015 0
145 2107 0
69 1065 0
-1844 124 1846 0
-1839 -326 1841 0
-2456 -176 0
-719 726 0
-1686 1691 0
-1846 125 1848 0
-2453 2458 0
-15 549 0
-723 728 0
-1314 -86 1316 0
-1931 -361 1932 0
-368 367 0
-2457 2460 0
-446 447 0
-2518 235 0
-1028 1031 0
-808 -320 810 0
-989 66 991 0
-1213 1214 0
-788 -300 0
-2624 253 0
-656 37 658 0
-2762 2763 0
-1496 -311 1497 0
-1737 1739 0
-1791 122 1793 0
-1815 1819 0
-1714 -115 0
-185 2595 0
-1315 1324 0
-911 919 0
-1694 -357 1695 0
-1096 1102 0
-179 2531 0
-2742 202 2743 0
-2587 2592 0
-2047 2048 0
-1863 -346 0
-2824 -213 2826 0
-618 619 0
147 2142 0
-156 155 0
-2356 -395 2357 0
-1748 250 0
-685 686 0
-2798 211 2800 0
-2881 2882 0
-2234 2235 0
-2580 -185 2582 0
-325 -55 0
-942 -372 944 0
-2131 -148 0
-1746 248 1747 0
60 924 0
103 1560 0
-2375 2380 0
151 152 153 154 347 348 349 350 0
-2073 -269 2074 0
-290 289 0
-2592 188 2593 0
-1525 -339 1527 0
1 0
-2682 331 2684 0
-950 64 952 0
-2779 -235 0
89 1345 0
-711 258 712 0
-342 341 0
-285 646 0
-2431 2434 0
-1649 1652 0
-2626 254 2627 0
-1969 1970 0
-1187 1188 0
-1406 -428 0
-2736 2737 0
-1184 79 1186 0
-2793 -210 2795 0
-36 653 0
-59 935 0
-281 -161 0
-2042 -252 0
-375 -89 0
-241 -89 0
-52 830 0
-2769 -352 0
-973 425 975 0
-1653 -292 0
-724 -44 725 0
-1772 282 0
-984 -426 0
-130 129 0
-2866 2869 0
-2861 -218 2863 0
-855 856 0
-1437 1440 0
-975 976 0
-2029 -139 2031 0
-1742 1743 0
-1199 1204 0
-1736 -430 1737 0
-2044 2051 0
-2471 2472 0
-2501 436 2503 0
-1689 1690 0
-2514 233 2516 0
-1087 -311 1088 0
-1387 -389 1388 0
-1854 347 0
-2862 -361 2864 0
-2220 -379 2221 0
-1133 -415 0
-490 -309 0
-2011 -433 2012 0
-2338 2341 0
-1429 -94 1431 0
-1650 -291 0
-2416 2421 0
-1262 -83 1264 0
-2643 2644 0
-1361 -227 1362 0
-1990 -405 1991 0
-2274 -263 0
-1179 -275 1180 0
-1023 -68 1025 0
-2137 -366 2138 0
-1922 -359 1924 0
97 1450 0
-289 -77 0
-2015 139 2017 0
-2483 2488 0
-1702 115 1704 0
-767 298 0
-2345 -166 2347 0
-1704 116 1706 0
-2006 2009 0
-2277 163 2279 0
-1270 -84 1271 0
-300 299 0
-2250 158 2252 0
-1660 323 0
-1306 1309 0
-1096 388 1098 0
-546 14 0
-2759 351 0
-980 -64 982 0
-2836 333 0
-104 103 0
-1611 1612 0
-829 830 0
-2378 2379 0
-949 950 0
-1271 -337 1272 0
-2517 234 0
-2110 329 0
-1736 1738 0
-126 1862 0
-2521 236 0
269 2391 0
-877 -56 879 0
93 1411 0
-2445 2446 0
-1721 1723 0
-357 -101 0
-1799 1803 0
-210 2807 0
-1029 -259 1030 0
-972 425 974 0
-309 -47 0
-1850 1851 0
128 1876 0
109 1634 0
-1146 1149 0
203 0
-504 508 0
-2426 -174 0
-1917 1918 0
-488 489 0
-1677 358 1679 0
-1523 -102 1525 0
-1985 -136 1987 0
-2253 434 2255 0
-82 1261 0
-1061 -287 1062 0
-571 575 0
-772 299 773 0
-274 273 0
-1473 -280 0
-2684 332 2686 0
-413 1134 0
201 2754 0
-2874 -219 2876 0
-1982 -135 1984 0
-2457 -329 0
-2469 177 2471 0
-452 -2 454 0
-923 924 0
-2633 -254 2635 0
-1405 1409 0
-1049 290 0
-1648 1651 0
-1732 -116 1734 0
-62 960 0
-1413 242 0
-2219 -380 0
-1485 311 1486 0
-1953 1954 0
-928 930 0
-3 456 0
-687 238 688 0
-1315 -87 1317 0
-76 1146 0
-408 407 0
77 1159 0
-2322 -367 2323 0
-445 3 447 0
-657 37 659 0
-1853 347 1855 0
-2077 143 2079 0
-591 592 0
-830 835 0
-1782 1785 0
-2607 2611 0
-851 -225 853 0
-508 -325 509 0
-128 1871 0
143 2105 0
-1829 1831 0
-882 887 0
-2192 2193 0
-2618 -423 0
-760 769 0
-2154 2155 0
-2797 210 2799 0
-135 1989 0
-1515 341 0
-1974 1978 0
-248 247 0
-2337 2340 0
-677 -388 0
-943 -372 945 0
-2095 2102 0
-1254 1257 0
-2528 -234 2529 0
-1093 1094 0
-2021 2024 0
-2642 2643 0
-2721 199 2723 0
137 0
-2099 2104 0
-738 275 0
-251 -159 0
185 2586 0
76 1138 0
233 2519 0
-2709 2710 0
78 1184 0
121 1820 0
-311 -89 0
-1449 277 0
-307 -199 0
-2286 305 0
-1378 -90 1380 0
-382 381 0
-131 1949 0
-386 676 0
-1015 68 1016 0
197 2717 0
-297 -33 0
-2029 2038 0
-1140 246 1142 0
-2776 2777 0
-1027 1030 0
-1802 303 1803 0
-1105 1110 0
-2296 -304 2297 0
-2225 -382 0
-1527 -340 0
-2114 2115 0
-299 1210 0
-1814 1818 0
-2406 -272 0
-2435 -295 2436 0
-1038 70 1040 0
-855 -55 0
-937 -61 939 0
-1880 417 0
-550 -237 0
-2061 2062 0
-2672 -307 0
-632 633 0
-1156 78 1158 0
-1134 -414 1135 0
-2458 -176 2459 0
-170 169 0
84 1254 0
-1197 302 0
-955 400 957 0
56 862 0
-1804 -120 1806 0
-1161 1164 0
-861 56 863 0
-2803 212 2804 0
-2710 2713 0
-1312 375 1313 0
-699 700 0
-589 343 0
-2030 -139 2032 0
-222 221 0
-1305 88 1306 0
-379 2223 0
-2092 -143 2094 0
-2222 -381 0
-604 -29 606 0
-1067 1068 0
-1602 266 0
-2315 2316 0
-2365 170 2367 0
-304 303 0
-1194 299 1195 0
3 460 0
232 2269 0
-887 891 0
-1169 1178 0
-1910 359 1911 0
-1877 415 1879 0
-2289 -163 2291 0
-2683 2684 0
-1173 1180 0
-787 -299 788 0
-1901 1902 0
-68 1051 0
-356 355 0
-1734 -429 0
-88 1338 0
-1663 1666 0
-489 -309 491 0
-1260 -82 1262 0
-2430 2433 0
-1783 1786 0
-2325 -368 2326 0
-871 336 872 0
-2673 -305 2674 0
-539 540 0
-2085 314 2086 0
-1268 1269 0
-2418 293 2419 0
-2817 2818 0
-61 959 0
-606 607 0
-415 -91 0
211 2815 0
-144 143 0
-485 -7 487 0
-1671 1680 0
-1451 1454 0
-179 2522 0
-989 990 0
205 0
-2160 2162 0
-1675 1682 0
-2290 -163 0
-673 674 0
142 2055 0
-751 754 0
-1648 -289 1649 0
-196 195 0
-2305 367 2307 0
-798 800 0
-1299 86 1301 0
-2650 305 2652 0
-2590 2591 0
187 2592 0
-2806 -210 2808 0
-278 277 0
-1221 82 1222 0
-2129 -147 2131 0
-1828 1830 0
-1720 -392 1721 0
-2371 252 2372 0
49 793 0
-1108 1109 0
-1875 1876 0
-175 2482 0
-1502 -313 1503 0
-330 329 0
-593 400 0
-1063 -289 1064 0
-2724 2725 0
-2768 -351 0
-2732 -200 2733 0
-2020 2023 0
-1543 376 0
-1921 -132 1923 0
-776 777 0
-116 0
-31 638 0
-1547 378 0
-2791 2792 0
-343 817 0
-1207 -299 1208 0
-1120 1125 0
-1757 -250 0
-118 117 0
-1928 -361 0
-2168 417 2170 0
83 1275 0
-361 -163 0
-2545 350 0
-1104 -72 1106 0
-2520 235 2521 0
-1582 228 1583 0
-870 335 871 0
-1429 1430 0
-2312 368 2313 0
-104 1570 0
-2196 2197 0
-1954 1959 0
-968 970 0
-1457 279 1458 0
-2436 -296 0
-77 1178 0
-1820 122 1822 0
-1735 1737 0
-710 713 0
-2259 2262 0
-313 -109 0
-714 715 0
-437 2713 0
-252 251 0
-560 -16 562 0
49 50 51 52 343 344 345 346 0
-176 2461 0
-1097 1098 0
-2326 2329 0
-2362 420 0
-2715 -439 2716 0
-1160 1163 0
-1916 362 0
-163 2292 0
-1707 392 1709 0
-1465 1466 0
47 789 0
-1130 -413 1132 0
-277 -89 0
-2057 269 2058 0
-1099 74 1100 0
-247 -89 0
-1001 -240 1002 0
-1576 -405 1577 0
-1031 1034 0
123 1844 0
-2660 308 0
179 180 181 182 315 316 317 318 0
-2523 2528 0
-1983 1984 0
-199 2732 0
-92 91 0
-817 818 0
-291 -119 0
-1341 1343 0
-87 1337 0
-937 938 0
148 2143 0
129 1901 0
-2648 2654 0
221 443 0
-2429 2432 0
-1669 -324 0
-1401 430 0
-1891 -417 1892 0
-2468 2477 0
-971 64 973 0
-1124 415 0
-405 -127 0
174 2438 0
-1218 321 1220 0
-881 -58 883 0
-555 18 557 0
-226 225 0
-2591 397 0
-2801 2802 0
-2198 155 2200 0
139 2043 0
-1071 1072 0
-2132 -365 0
-542 -385 0
-1838 1839 0
-166 2346 0
-1056 1057 0
-1030 -260 1031 0
-2625 2627 0
-882 -335 884 0
-1120 413 1122 0
-1905 1906 0
-844 225 845 0
-1123 1124 0
-476 477 0
-411 835 0
-50 814 0
-2750 2753 0
-2464 -330 2465 0
202 2755 0
-1506 1507 0
-481 483 0
-1240 -323 0
-1257 338 1258 0
-2842 -215 2844 0
-2273 2274 0
-262 261 0
-2463 -331 0
21 586 0
-605 -30 607 0
-279 1785 0
147 2122 0
-2498 435 2500 0
-2764 -203 2766 0
-1573 1574 0
-2802 2805 0
-1052 -69 1054 0
173 2417 0
-513 12 515 0
-1477 100 1479 0
-57 908 0
-1977 405 1978 0
-2242 -158 2243 0
-2407 2408 0
-1098 389 0
-396 395 0
-1004 -242 0
-1261 -83 1263 0
-1041 1044 0
-543 -14 544 0
-200 199 0
-1523 1529 0
-1152 -248 0
-2460 -330 0
-2775 2776 0
-1265 1272 0
-1137 76 1139 0
-2637 -256 0
-1132 -414 0
-1570 1575 0
-1512 1516 0
-2617 -422 0
-2842 2843 0
-1463 -98 1465 0
-103 1569 0
-123 1856 0
-1879 1880 0
-1936 134 1938 0
-660 353 662 0
-884 -336 0
-1464 -277 1466 0
-2402 -270 2404 0
-1334 403 1336 0
11 516 0
-570 19 572 0
-1649 -290 1650 0
-1480 1481 0
-1797 301 1798 0
-455 457 0
-2221 -380 2222 0
-236 235 0
-778 -48 0
-2325 2328 0
-1827 326 0
-1430 -95 1432 0
-2067 2071 0
-2046 142 2048 0
-538 543 0
-2130 -148 2132 0
-1991 -406 1992 0
-2444 330 2446 0
-821 411 823 0
-2529 -235 2530 0
-399 -39 0
24 589 0
-635 287 637 0
-928 371 0
-1372 1377 0
-1949 -132 1951 0
-2570 184 2572 0
-545 -386 0
-370 369 0
-2459 2462 0
-665 -37 0
-481 309 0
-1030 1033 0
-331 2697 0
-2396 -171 2398 0
-1693 -358 0
42 700 0
-2749 2750 0
-1476 99 1478 0
-2453 -175 2455 0
-2049 2050 0
-2247 -409 0
13 534 0
-1697 -358 1698 0
-620 621 0
-2573 2575 0
-708 257 709 0
-1065 70 1067 0
-48 783 0
-158 157 0
-530 13 532 0
-2466 -332 0
-111 1666 0
-1164 1167 0
383 0
-1622 -267 1623 0
-1447 98 1449 0
-1514 340 1515 0
-2116 2117 0
417 2172 0
-2236 2237 0
-1032 -260 1033 0
-170 2375 0
-2883 440 0
-897 60 0
-750 753 0
-520 -11 522 0
-210 209 0
-2241 2243 0
-774 -46 776 0
-690 -42 692 0
-1909 132 1910 0
-2119 2125 0
-1094 1101 0
-2031 -140 2033 0
-797 799 0
-1591 -229 1593 0
151 152 291 292 293 294 0
-2288 2289 0
-2398 -172 2400 0
-2058 270 0
-827 413 828 0
439 2883 0
-2691 -195 0
-1789 121 1791 0
-49 813 0
-747 -46 749 0
-2128 2133 0
153 2196 0
-1346 1351 0
-417 -135 0
-1403 -427 1405 0
-2310 166 2311 0
-344 343 0
-2433 2436 0
-436 2511 0
-345 -111 0
-755 -275 0
-624 -265 625 0
-537 -12 539 0
-1189 1190 0
-2214 -156 2216 0
-2738 2739 0
-271 -189 0
-983 -426 985 0
-931 933 0
-1264 -84 1266 0
-107 1639 0
-2153 396 0
-763 48 765 0
-1776 1780 0
-2443 329 2445 0
-1433 -96 0
-2033 -249 2035 0
-1739 -432 0
-189 2630 0
-473 -285 475 0
-594 595 0
-818 -345 0
-1699 -360 0
-132 131 0
-1439 1442 0
159 2266 0
275 1165 0
-2090 2091 0
-81 1237 0
-661 662 0
-2857 2858 0
-1910 1914 0
-1455 279 0
-1248 1252 0
-1652 -291 1653 0
-655 36 657 0
-1814 -302 1815 0
-2454 -175 2456 0
-1511 1515 0
-2375 -251 2377 0
-2170 418 0
-266 265 0
-2575 369 0
-1167 278 0
-716 -43 718 0
-2340 2343 0
-2223 -380 2224 0
-16 561 0
-1696 -359 0
-1436 -261 1437 0
-2645 2646 0
-2059 -140 2061 0
-939 -62 941 0
-2748 -202 2750 0
-2431 -293 2432 0
-318 317 0
-793 50 794 0
-2381 -253 2382 0
87 1305 0
-438 437 0
-580 -20 582 0
-1745 1748 0
-2140 -367 2141 0
-2034 -249 2036 0
-1283 1284 0
-501 502 0
-983 987 0
-261 -75 0
-2749 -202 0
-1692 1695 0
-1045 1048 0
-311 1501 0
-2779 2780 0
-1997 1998 0
-568 569 0
-1365 91 1367 0
-2764 2765 0
-854 -54 0
-2499 435 2501 0
-106 105 0
-2784 2786 0
-951 952 0
-17 564 0
-349 -175 0
-2648 194 2650 0
98 1453 0
-2831 2832 0
-2184 2185 0
-2876 -220 2878 0
-281 -179 0
-2596 -187 2598 0
-1596 107 1598 0
210 2798 0
-83 1270 0
-2599 -188 0
-780 783 0
-240 239 0
-1127 416 0
-823 827 0
-522 526 0
-748 -46 0
-466 285 467 0
-2739 202 2741 0
-2881 220 0
-1317 -88 1319 0
-1852 1853 0
233 2270 0
-1610 1615 0
-647 -287 0
-2000 432 2002 0
-165 2345 0
-2082 313 2083 0
-1614 1617 0
-561 -17 563 0
183 2570 0
-1283 356 1285 0
-97 1469 0
-1850 345 1852 0
-1919 1920 0
-1137 1138 0
-2093 -144 2095 0
-1220 322 0
-355 1295 0
-27 602 0
372 0
-1366 92 1368 0
-1716 -116 1717 0
-315 2535 0
-1564 404 0
180 2514 0
-1971 1972 0
-291 -141 0
-1431 -95 1433 0
-80 79 0
-1567 405 1568 0
-2047 142 2049 0
-805 806 0
-2758 2760 0
7 492 0
-1387 1390 0
-986 -426 987 0
-2877 -220 2879 0
-925 926 0
-2597 -187 2599 0
-822 411 824 0
-634 286 636 0
-93 1429 0
-963 -64 964 0
-930 932 0
-148 2136 0
-1454 1457 0
-2547 349 2548 0
-1936 1942 0
-2504 438 0
-2163 2165 0
-107 1615 0
-1550 -103 1552 0
-676 677 0
-2526 2527 0
-754 757 0
-214 213 0
-2257 436 0
-345 1864 0
-1857 -125 1859 0
-2366 2371 0
-1380 -91 1382 0
319 797 0
-1889 1892 0
-1893 1894 0
-402 1343 0
205 2775 0
-706 257 707 0
-2183 -420 0
-2390 270 0
-384 -383 -206 -205 -204 -203 0
22 587 0
425 977 0
-2478 381 2479 0
-2096 -313 2098 0
-2781 208 2783 0
-2785 2787 0
-1153 76 1155 0
-2264 -435 2265 0
-1188 299 1190 0
-2847 -333 2848 0
-1256 1259 0
-2023 2026 0
-1828 326 1829 0
-678 -40 0
-1806 -121 1808 0
-2547 2551 0
-54 53 0
-2032 -140 2034 0
-905 354 906 0
-2852 2854 0
-826 412 827 0
-1381 1385 0
-2565 -351 0
-1419 261 1421 0
-1365 1366 0
-1628 1629 0
-1053 -70 1055 0
-1139 245 1141 0
-2395 2396 0
-16 550 0
-2154 -148 2156 0
-1355 -225 1357 0
-2458 2461 0
-1763 279 1765 0
-2700 -334 0
-188 187 0
-2093 2101 0
66 1006 0
-120 1782 0
-1495 1498 0
319 0
-2252 433 2254 0
-1976 407 0
-186 2596 0
-2629 256 0
-2233 408 2235 0
-634 635 0
-325 -71 0
-2348 -168 2350 0
175 2467 0
-1640 1645 0
-2784 210 0
-1761 1769 0
-1221 1225 0
2 445 0
-1163 1166 0
-1148 -246 0
-2250 2251 0
-535 385 536 0
167 2360 0
-2882 439 0
-224 223 0
-487 -8 489 0
-505 506 0
-2239 -157 2241 0
124 1845 0
-377 -127 0
-832 -412 834 0
-630 34 632 0
-361 -183 0
-2208 380 2209 0
-2302 2303 0
210 2787 0
-1800 301 1801 0
-2141 -368 0
183 2546 0
-693 697 0
-1602 1603 0
-1146 -245 1148 0
-2369 2370 0
-1395 427 1397 0
-358 357 0
-99 1520 0
-1994 -406 1995 0
-2432 2435 0
-1722 -393 1723 0
-1007 1008 0
-2152 395 0
-1929 -359 1930 0
140 2044 0
-239 1001 0
-2335 395 0
-212 2824 0
-2705 438 2707 0
-608 609 0
-2776 423 0
-2138 -367 0
-1631 290 1633 0
-293 -161 0
-2162 2164 0
-507 -10 508 0
-675 676 0
-2649 194 2651 0
-289 1651 0
-1824 124 1825 0
-1924 1928 0
123 1824 0
-495 499 0
-187 2601 0
-198 197 0
-2332 167 2334 0
-1250 337 0
-1147 -245 0
-1204 1207 0
-2717 198 0
-2343 397 2344 0
-5 484 0
168 2361 0
-2276 2277 0
-1791 1797 0
-1553 -375 1555 0
-1291 -86 1292 0
-1337 -88 1339 0
-2738 201 2740 0
-1166 277 1167 0
-293 2188 0
-2296 2298 0
-1350 227 0
-1402 -92 1404 0
-2572 185 0
-1454 278 1455 0
-213 2827 0
-1877 1878 0
-2352 -396 2354 0
-2465 -331 2466 0
-332 331 0
196 2702 0
-914 915 0
-1396 1400 0
91 1373 0
-2726 2727 0
-1336 404 0
-1247 83 1249 0
80 1214 0
-1784 -281 0
134 1945 0
-2711 2712 0
-2546 2550 0
-817 -344 0
-919 -353 920 0
-2488 2491 0
-54 847 0
-2681 196 2683 0
-2793 2794 0
-345 819 0
-1044 1047 0
-2636 -255 0
-2606 421 2608 0
-2778 2779 0
-2131 2132 0
-120 119 0
-1349 1350 0
-864 870 0
-2743 317 2744 0
-2546 184 2547 0
-2382 -254 0
-1426 262 1427 0
231 2268 0
-2598 2602 0
-2113 2122 0
-1111 1114 0
-1529 -339 1530 0
-1431 1432 0
-329 -163 0
-2198 2199 0
-1416 1417 0
-696 -238 697 0
-883 -335 0
-1494 1497 0
88 1330 0
-287 -45 0
-1634 110 1635 0
-1236 1240 0
-1735 -430 0
-1770 280 1771 0
-1541 375 0
-716 717 0
-2558 -184 2560 0
-1026 -68 1027 0
-1541 1543 0
-254 253 0
-1041 70 1042 0
-779 782 0
-2297 -305 0
-2555 -183 2557 0
-2084 313 2085 0
-575 297 576 0
-899 902 0
-796 320 0
-841 843 0
-1550 1551 0
-2333 2337 0
257 711 0
-586 22 0
-1817 -302 1818 0
-1688 -114 1690 0
-1048 289 1049 0
254 2628 0
-717 -44 719 0
-102 1532 0
-426 425 0
28 595 0
-1733 1736 0
-2060 -141 2062 0
-2370 253 0
-1985 1986 0
-2353 -396 0
-1189 299 1191 0
-556 557 0
-1038 1042 0
-2105 2106 0
-94 93 0
-1114 -388 1115 0
-997 -66 999 0
-1925 1929 0
-1988 -406 0
-2450 331 2451 0
-2103 -315 2104 0
-1882 417 1883 0
-2819 2820 0
-2830 -308 0
-1391 -391 1392 0
-686 689 0
-1992 1996 0
-1054 -70 1056 0
-1773 1774 0
-265 1621 0
-690 691 0
41 681 0
-1358 -226 0
-228 227 0
-684 238 686 0
-753 756 0
-2060 2067 0
-2244 2246 0
-2413 293 2415 0
376 1546 0
-1840 1841 0
-1058 1059 0
189 2622 0
-2064 2069 0
-1524 1525 0
-108 1618 0
172 2389 0
-315 -173 0
-631 285 633 0
-461 5 463 0
-1907 1908 0
-2732 2734 0
-478 479 0
-2519 234 2520 0
-52 816 0
-142 2091 0
-2311 367 2312 0
-1245 1246 0
-1943 378 1944 0
-1756 -249 1757 0
-1604 108 1605 0
-643 -285 0
-2557 2563 0
-90 1355 0
-530 531 0
-2404 -271 2406 0
-2561 2565 0
-68 67 0
-591 26 0
-2826 -214 0
-612 613 0
-158 2244 0
-1599 1606 0
-2525 -234 2527 0
-1335 403 0
-2146 2147 0
-1749 -118 1751 0
-1982 1989 0
-980 981 0
-738 743 0
-2287 306 0
-1779 -120 1780 0
-1447 1451 0
-2213 2214 0
-202 201 0
-58 889 0
-323 -89 0
-1057 -288 1059 0
-86 1315 0
-2142 148 2144 0
-1962 -378 1963 0
-2354 2359 0
-1881 416 1882 0
-1606 266 1607 0
-1514 1518 0
-1531 -341 0
-1110 1113 0
206 2776 0
-2083 314 0
-1633 291 0
-440 -439 -220 -219 0
-452 453 0
-1219 1220 0
-2783 209 0
-38 672 0
-1131 -414 1133 0
-457 459 0
-1073 310 1075 0
-1521 1528 0
-759 46 761 0
-519 520 0
-1302 1306 0
-2069 2073 0
-825 413 0
-449 257 451 0
-1107 -74 1109 0
-582 585 0
-42 41 0
-1796 122 1797 0
159 160 161 162 263 264 0
-2675 -307 2676 0
-1291 1293 0
-586 587 0
-1554 -375 1556 0
-2304 166 2306 0
-776 -47 778 0
-2845 2848 0
-2383 2384 0
-1116 -388 1117 0
-371 -37 0
-2244 -407 2245 0
-176 175 0
-2187 -293 0
-1811 -302 0
-2508 2510 0
-903 354 904 0
-1561 1566 0
-106 1587 0
-263 -117 0
-1788 1789 0
-1326 -374 1327 0
-1511 340 0
-1174 -275 1176 0
-1372 391 0
-2575 2577 0
-480 8 481 0
-1366 1374 0
-2763 -203 2765 0
-140 2060 0
-1370 1376 0
-1073 1074 0
-2055 267 2056 0
-1780 -279 1781 0
-2622 2623 0
-1860 1862 0
-1954 -377 1956 0
-697 -239 698 0
-2856 362 0
-1338 -401 1340 0
-212 211 0
-1573 -404 0
-2689 2690 0
-12 538 0
-864 58 866 0
-2120 366 0
-1581 1583 0
-1266 -337 1268 0
-2290 2291 0
-1253 338 0
-861 862 0
-116 1733 0
-560 561 0
-2514 2519 0
8 493 0
-1625 1634 0
105 1594 0
-141 2090 0
-2868 220 0
-1590 1591 0
-63 963 0
-2866 219 2868 0
-1468 1473 0
-1353 228 0
-1773 -118 1775 0
-31 622 0
-1715 1717 0
-1230 1237 0
-150 149 0
158 2251 0
-2189 -152 0
-528 12 530 0
207 208 235 236 0
-2424 2425 0
-2061 -141 2063 0
-995 996 0
-1762 1763 0
-2545 2549 0
-91 1402 0
-2487 2490 0
-574 20 575 0
-2489 -381 2490 0
-1000 1002 0
-596 597 0
-2307 2313 0
17 568 0
-1363 1364 0
-2010 -433 0
-1808 -122 1810 0
231 0
57 869 0
100 1505 0
-1667 -323 0
43 705 0
-668 -353 0
-502 -9 504 0
-1930 -360 1931 0
-663 664 0
-2859 2860 0
-72 1105 0
-1970 1975 0
-267 -117 0
-807 -319 809 0
-2737 2742 0
-2451 332 0
-2410 174 2412 0
-1008 1016 0
-1934 133 1936 0
-117 1749 0
-2741 2744 0
-1539 104 0
-2037 2042 0
-1012 1018 0
-734 273 736 0
-1215 81 1217 0
-2823 -212 2825 0
-2285 305 2287 0
-1581 228 0
-265 -95 0
-563 -18 0
-1101 388 1102 0
-1564 1565 0
-2389 2391 0
-320 319 0
-566 -273 567 0
-440 439 0
-2859 -217 2861 0
-1209 -301 0
-1446 97 1448 0
-664 667 0
-1285 1286 0
-2790 -209 2792 0
-1587 -227 1589 0
-1509 1514 0
-1752 1756 0
-1694 1697 0
-2072 -268 2073 0
-289 -89 0
99 1484 0
-1999 2000 0
-1085 -310 1086 0
-570 571 0
44 730 0
-2766 2767 0
-2038 -140 2039 0
-177 2488 0
-1337 1338 0
-2373 254 0
-1114 1117 0
-464 6 465 0
176 2468 0
-968 -401 0
-459 -258 0
-1834 -123 1836 0
-627 33 629 0
-691 -237 693 0
-293 2434 0
-2389 269 2390 0
-1002 -241 0
-2833 2834 0
-2186 2187 0
18 569 0
-1787 -282 0
88 1308 0
-1404 1405 0
-1940 378 0
-2653 2657 0
-981 986 0
-1021 -67 1023 0
-1224 1228 0
193 2677 0
383 2774 0
-1925 -132 1926 0
-1532 -339 1533 0
-1415 95 1417 0
-2238 2239 0
-1952 -134 1954 0
-46 45 0
-1078 -71 1080 0
-529 534 0
-815 -52 0
-1538 1539 0
-2341 397 0
-834 837 0
-2409 173 2411 0
-2626 2628 0
-414 413 0
-2532 -181 0
131 1933 0
-1139 1140 0
-169 2395 0
-2203 2209 0
-11 537 0
-2446 2451 0
-1421 1427 0
-2282 303 2284 0
-901 904 0
-1919 -131 1921 0
-1483 1488 0
-1818 -303 1819 0
-2284 304 2286 0
-133 1981 0
-720 -257 722 0
-75 1168 0
-2646 193 2648 0
-721 727 0
-1987 -405 0
-1244 -324 0
-1256 339 0
-89 1354 0
-82 81 0
-707 258 0
-768 773 0
-2331 167 2333 0
395 2342 0
-2136 -365 2137 0
-1393 1394 0
-156 2239 0
201 2742 0
-909 918 0
-777 -48 779 0
-1378 1379 0
-1665 -112 0
-432 2011 0
-1214 1221 0
-1416 95 1418 0
-1451 277 1452 0
8 482 0
-1218 1223 0
-1803 304 0
-678 679 0
-2848 -334 0
-102 1549 0
-2336 168 2337 0
-216 215 0
-1042 287 1043 0
-85 1314 0
-626 32 628 0
-1246 83 1248 0
79 1193 0
-2595 2596 0
-2272 -161 0
-540 -14 542 0
-925 61 0
-421 -177 0
-2708 440 0
-901 354 0
-388 387 0
-1895 1896 0
-1695 1698 0
-2432 -294 2433 0
-2647 193 2649 0
-1198 -78 1200 0
-1233 1234 0
-730 45 732 0
-47 801 0
-2429 -293 2430 0
-892 -338 0
-885 -58 886 0
-816 -343 0
-912 -60 914 0
-865 58 867 0
-2549 2553 0
-56 55 0
-1870 -128 0
-2535 -316 0
-1887 1891 0
-2854 2856 0
233 0
-281 -171 0
-1866 -347 1867 0
216 2850 0
-619 -31 621 0
-1367 1368 0
-643 645 0
102 1516 0
-956 401 958 0
-886 -335 887 0
-239 -53 0
-1188 1195 0
-576 298 0
185 2574 0
-1192 1197 0
-652 653 0
-86 1293 0
-190 189 0
-2543 349 2545 0
-411 -39 0
-1497 1500 0
-2668 2672 0
-784 -298 785 0
-1737 -431 0
-1035 1036 0
-1020 1021 0
415 1881 0
-584 -297 585 0
-731 45 733 0
-2869 220 2870 0
-902 905 0
-1869 1870 0
-2636 2637 0
-2661 -192 2663 0
-438 0
-799 321 800 0
-1552 -104 1554 0
-1970 405 1972 0
-858 -244 0
-2703 2704 0
-2191 -154 0
-703 44 0
-1935 133 1937 0
-974 978 0
-664 -37 666 0
-424 -423 -206 -205 0
-30 29 0
-850 -224 852 0
-438 2715 0
-196 0
-2304 2305 0
-2828 2830 0
-2307 368 2309 0
-2359 -398 0
-2878 -409 2880 0
-1900 -342 0
-523 -12 0
-363 -23 0
-2348 2356 0
131 1909 0
-933 373 934 0
-2867 219 0
-2171 2174 0
-700 705 0
-2340 396 2341 0
-1555 -376 1557 0
-626 627 0
-704 707 0
-164 163 0
-1529 1533 0
167 0
-2791 -209 2793 0
-1009 1010 0
-1117 -389 1118 0
-2316 2321 0
-1713 -115 1715 0
-1418 96 1420 0
-2006 -431 2008 0
190 2623 0
-663 -36 665 0
-1044 287 1045 0
-896 900 0
-1142 247 1144 0
-1924 -360 0
-1895 341 0
-628 33 630 0
-1444 1445 0
-1295 -356 1296 0
211 2803 0
-2211 2212 0
-1128 1129 0
-1021 1026 0
-409 -167 0
-2677 2678 0
-201 2751 0
-1206 1209 0
-2755 2758 0
-2735 -296 0
-2434 -294 2435 0
-325 -89 0
-4 3 0
-2278 2279 0
-701 43 703 0
-2825 -213 0
-1918 1925 0
-2345 2346 0
58 894 0
-916 917 0
-2150 394 2152 0
-927 62 928 0
-2869 2871 0
329 2111 0
-138 137 0
-53 854 0
-363 -89 0
-497 325 0
-1046 1049 0
68 1036 0
-2490 -382 0
-1050 1051 0
-2288 -162 2290 0
-2062 -142 2064 0
-1294 -356 0
-786 -298 787 0
-2614 -421 2616 0
-1373 92 1374 0
-636 287 0
-870 874 0
-1113 1116 0
-1880 1883 0
-2200 2201 0
-1418 1419 0
177 2497 0
-1415 1424 0
-8 502 0
-2185 2186 0
-1884 1885 0
-2588 187 2590 0
-1238 1242 0
-1939 377 0
-361 -175 0
-2729 2732 0
-1462 1470 0
-1543 1545 0
-18 578 0
-2009 2011 0
-2252 2253 0
-2530 -236 0
-2723 200 2725 0
-2476 2481 0
-313 -121 0
-60 59 0
-9 519 0
-900 353 901 0
-2513 180 2515 0
-1552 1553 0
-2134 2137 0
-2319 2320 0
-588 24 0
-1294 1296 0
-1430 1435 0
-1615 1618 0
-428 427 0
-472 -6 474 0
-621 -32 0
-893 58 895 0
-1915 361 1916 0
-2386 172 0
-2124 366 2125 0
-1983 -135 1985 0
-957 958 0
-1518 341 1519 0
-2186 -292 0
-1317 1325 0
-777 781 0
-1987 1988 0
-962 964 0
-558 559 0
-66 1021 0
-2754 2755 0
-794 319 0
-2107 2108 0
-2571 185 2573 0
-1082 1084 0
-1896 342 0
-1024 1025 0
-2461 -329 2462 0
-2331 2336 0
-208 2779 0
-325 -21 0
-1927 1931 0
-1501 -312 1502 0
-557 273 559 0
-2821 2822 0
-1207 1210 0
-1149 1151 0
-2657 305 2658 0
-436 0
29 598 0
-303 -141 0
-94 1430 0
-1498 -311 1499 0
-1858 1859 0
-2801 212 0
-2161 -394 0
-2698 -333 0
-692 693 0
-1459 1460 0
-245 860 0
-2086 315 0
-101 1548 0
-2226 2227 0
-755 758 0
-2164 -395 2165 0
-801 -48 803 0
-1036 1041 0
-2697 -332 2698 0
-2246 2248 0
-1251 84 1252 0
-34 33 0
-759 760 0
-1186 80 1188 0
-2308 2309 0
-1526 1527 0
-2300 164 2302 0
-741 274 742 0
-494 9 496 0
-1845 125 1847 0
120 1789 0
-402 401 0
-578 -19 580 0
-54 855 0
-1247 1248 0
205 2772 0
-828 414 0
-2360 2361 0
-1171 1179 0
-1109 -387 0
-2175 -150 2177 0
-1320 -373 1322 0
-1718 1720 0
-173 2452 0
-1314 1315 0
-1505 101 1507 0
-532 533 0
-2563 2567 0
-70 69 0
-1202 -80 0
-2548 2552 0
411 0
-2868 2870 0
-309 -55 0
-2028 2029 0
-2853 2855 0
-2148 2149 0
-2123 365 2124 0
66 990 0
-1906 1911 0
-1144 248 0
-282 2643 0
-510 10 512 0
-1448 1449 0
-2215 2216 0
-1556 -376 1558 0
-1433 1434 0
-127 1884 0
-2271 -160 0
-500 326 0
14 547 0
-109 1645 0
-8 7 0
-2644 -284 0
-940 -371 942 0
-2112 146 2114 0
-2051 142 2052 0
-1462 -98 1464 0
-2246 -408 2247 0
-2807 2812 0
-2267 2268 0
-1907 359 0
-261 -89 0
-1537 103 1539 0
-1050 -68 1052 0
-376 375 0
155 2226 0
-46 775 0
-454 455 0
-2318 -166 2320 0
-736 742 0
2 442 0
146 2113 0
-40 674 0
-1239 -322 1240 0
-152 2190 0
-2334 2335 0
-2079 144 0
-1445 1450 0
-1508 102 1510 0
-1688 1692 0
-337 -71 0
-2008 2010 0
-1765 280 1767 0
-2455 2459 0
-1168 1169 0
-2534 -315 0
-521 522 0
-2717 2718 0
141 2075 0
-1293 -355 1294 0
-740 273 741 0
-44 43 0
-1359 -227 0
-1268 -338 0
-1293 1295 0
-1235 1236 0
-588 589 0
-974 426 976 0
-2827 2829 0
-112 1686 0
-345 -57 0
-2731 -200 0
-2589 2593 0
-1942 1946 0
-661 353 0
-1668 -323 1669 0
-1422 1423 0
-640 641 0
-2247 2249 0
-119 1804 0
-2189 2190 0
-178 177 0
-2500 436 2502 0
-399 -51 0
-2205 381 0
-2656 2660 0
-1790 1791 0
-129 1917 0
-685 238 0
-564 -18 565 0
-2281 303 2283 0
-2014 2019 0
-612 31 614 0
-1474 1475 0
-194 2690 0
-1071 309 1073 0
-2377 2381 0
-814 -51 0
-552 16 554 0
-713 260 0
-1075 1076 0
-2624 2625 0
-1018 261 1019 0
-2615 -421 2617 0
-2531 -180 0
270 2393 0
-2416 295 0
-1840 -326 1842 0
371 0
-2691 2692 0
-1703 116 1705 0
-1666 1668 0
-73 1128 0
-1262 1263 0
-504 -10 506 0
-237 -27 0
-1821 123 1823 0
-2551 350 2552 0
-18 17 0
-1807 1813 0
-145 2127 0
-562 563 0
-1639 -108 1641 0
-1654 110 1656 0
-1329 1330 0
-547 548 0
-2096 2097 0
-739 46 740 0
-347 -145 0
-1796 1800 0
-434 0
-1858 -125 0
-1625 109 1627 0
-1664 -111 0
-1154 1159 0
-2472 381 2474 0
-614 615 0
-597 30 0
-2374 -170 2376 0
-152 151 0
-1860 -126 1861 0
-173 2428 0
-997 998 0
-196 2710 0
-1764 1765 0
-1370 390 1372 0
-2531 2532 0
-1058 -288 0
-2046 2052 0
-2609 2612 0
198 2721 0
-67 1026 0
-1143 247 0
-880 886 0
-2792 -210 2794 0
112 1671 0
-1589 -228 1591 0
-862 57 864 0
101 1512 0
-2201 379 2203 0
-884 888 0
-430 1738 0
-869 873 0
-1793 301 1795 0
-160 2272 0
-2665 2666 0
-2423 2428 0
-1272 -338 1273 0
-2543 2548 0
-1483 313 0
-1540 104 1541 0
-2039 -249 2040 0
-2683 331 2685 0
-671 -38 0
-2301 2310 0
-2485 2489 0
-2081 2084 0
-1067 71 1069 0
-2266 2267 0
-998 1001 0
-2344 398 0
-2509 -436 2510 0
-2305 2312 0
-1017 260 1018 0
-1521 -101 1523 0
-1177 -277 0
-45 774 0
-1303 1304 0
-1354 -90 1356 0
-57 885 0
-842 844 0
161 2276 0
-2391 2393 0
-2782 209 2784 0
-2761 352 0
-579 -19 581 0
-1886 -415 1888 0
-2653 194 2654 0
-126 125 0
-2631 -253 2633 0
371 931 0
-2031 2039 0
-1006 1015 0
-444 2 446 0
-971 972 0
-2608 422 0
141 2051 0
-1010 1017 0
-2505 2506 0
-2768 2769 0
-2078 144 2080 0
-1500 1503 0
-1863 1865 0
-887 -336 888 0
-1941 1945 0
-2048 267 2050 0
-2572 2573 0
-1064 -290 0
33 34 35 36 335 336 0
-1406 1407 0
-1901 130 1903 0
-392 1722 0
-982 -425 984 0
-1148 1150 0
-91 1384 0
-1872 1873 0
-2204 380 0
-2655 2659 0
-531 14 533 0
-2639 2640 0
-146 2128 0
203 2770 0
-363 -85 0
-1750 1755 0
-425 986 0
-1288 1291 0
-506 509 0
-857 -243 0
-2337 395 2338 0
157 2250 0
-182 2555 0
-2240 2241 0
-1679 359 0
-1444 96 1446 0
-510 511 0
-904 355 0
207 2781 0
-48 47 0
-475 -286 0
-1546 377 1547 0
-164 2316 0
-259 1032 0
-573 576 0
-2089 316 0
-941 -371 943 0
-952 399 954 0
-1536 102 1538 0
-416 415 0
81 1221 0
-59 918 0
-1659 323 1661 0
-1665 1667 0
107 1624 0
-100 99 0
-2836 2839 0
237 687 0
-1407 1410 0
-2374 2375 0
-435 2509 0
-945 946 0
-2835 216 0
-1712 1713 0
-1786 -281 1787 0
-2562 -184 2563 0
-546 547 0
59 923 0
-2474 382 2476 0
-1795 1799 0
-2195 -350 0
-2562 2566 0
-1155 77 1157 0
-1857 1860 0
-154 2212 0
-247 1755 0
-832 836 0
-2197 2206 0
-596 29 0
-2380 -252 2381 0
-2581 -186 2583 0
-1677 1683 0
-1027 -259 1028 0
-1380 1381 0
-935 -60 937 0
-1884 -128 1886 0
-2559 -349 2561 0
-190 2639 0
-2444 2450 0
-2561 -350 0
-1846 1847 0
7 480 0
-715 724 0
-891 -337 892 0
-281 2642 0
-1228 324 0
-2407 172 2409 0
-2091 -143 2093 0
-2101 -313 2102 0
-2149 394 2151 0
-1407 -429 0
-1158 275 0
-33 650 0
-484 485 0
25 591 0
-1499 -312 1500 0
-1209 1212 0
-22 21 0
-1776 -120 1778 0
-1424 96 1425 0
53 838 0
-69 1077 0
-602 -28 604 0
82 1246 0
-1647 -290 0
-2267 231 0
-951 64 953 0
-432 0
-852 853 0
-2230 158 2232 0
-2401 2402 0
-390 389 0
-929 371 930 0
-841 224 0
-1898 -341 1900 0
-1878 416 1880 0
-365 2139 0
-2875 -219 2877 0
-2495 -383 2496 0
-347 2193 0
-2595 -186 2597 0
129 1893 0
67 1015 0
-130 1898 0
-38 669 0
-1841 -327 1843 0
-1135 -415 1136 0
-1744 248 0
-2157 -150 0
-1584 229 1585 0
-2126 368 0
-1949 1950 0
-1414 94 1416 0
-45 750 0
-1122 1126 0
-2535 2536 0
-295 -179 0
50 795 0
-785 -299 0
-1369 1370 0
-587 588 0
421 2364 0
-1354 1355 0
-995 241 0
-1562 403 1564 0
-409 -187 0
-1956 1960 0
-517 363 518 0
-2515 233 2517 0
178 2498 0
-397 -177 0
-1237 -82 1238 0
-2261 2263 0
-1675 357 1677 0
-1289 -85 0
-2849 216 2851 0
-458 -257 459 0
-2473 381 2475 0
-1709 393 1711 0
5 476 0
-2670 2674 0
-2639 -191 0
-394 2164 0
-1384 -92 1385 0
-2645 192 2647 0
-1022 1023 0
-1597 108 1599 0
-1815 -303 0
-1710 393 0
-2249 -410 0
-395 -155 0
-46 753 0
-639 -33 641 0
-904 907 0
-364 363 0
-2127 -146 2129 0
-1089 1090 0
-812 -322 0
-442 443 0
-2638 2639 0
-1186 1194 0
-1234 -321 1236 0
-1590 -228 1592 0
-863 57 865 0
-954 400 956 0
220 2871 0
-2705 2706 0
-218 2874 0
105 1578 0
-2185 -291 0
-494 495 0
-1856 -124 1858 0
-2043 2044 0
-2525 2529 0
-32 31 0
-1743 1747 0
-1297 -357 1298 0
-1894 341 1896 0
-2772 2773 0
-1368 389 1370 0
177 2477 0
-2650 2655 0
-2110 2111 0
-2408 2417 0
-422 -421 -420 -419 -168 -167 0
-1893 130 1895 0
-2877 2878 0
-544 -385 545 0
53 54 55 56 243 244 245 246 0
-2470 2478 0
-361 -195 0
-2412 2419 0
-2671 -306 2672 0
-1724 116 1726 0
-1636 290 1637 0
-628 629 0
-2177 2178 0
-166 165 0
-1395 1396 0
-2235 409 2237 0
-105 1609 0
122 1800 0
-153 2211 0
-966 -400 0
169 2383 0
-338 337 0
-2007 -431 0
19 574 0
-1645 1648 0
-1423 263 0
-1745 249 0
-2395 -170 2397 0
-2719 272 0
-571 20 573 0
-1183 1184 0
-1708 392 1710 0
-286 648 0
125 126 127 128 363 364 365 366 0
-2357 -396 2358 0
-839 223 841 0
-1130 1131 0
-65 997 0
-2679 2680 0
-2452 -174 2454 0
-468 469 0
241 0
-2017 2018 0
-6 5 0
-118 1750 0
-1115 -389 0
-1482 312 0
-381 -165 0
-550 551 0
-1779 1782 0
-2347 -167 2349 0
-125 1868 0
-655 656 0
-953 399 955 0
-2794 -255 2796 0
61 947 0
-810 -321 812 0
-2540 183 2542 0
-602 603 0
-140 139 0
-1958 -377 1959 0
-722 723 0
-652 -36 0
-1267 1273 0
411 548 0
-242 -241 -94 -93 0
-789 790 0
-1572 1576 0
-2192 -347 0
-2643 -283 0
-2199 156 2201 0
-2771 205 0
-1635 289 1636 0
-794 796 0
-2053 268 2054 0
-301 -89 0
-872 876 0
-2586 2587 0
-1157 1158 0
-2234 408 2236 0
-856 857 0
-2796 -256 0
-2582 -186 2584 0
-1886 1887 0
-957 401 0
-2145 150 2147 0
-2693 -196 2694 0
-699 42 701 0
-2579 -185 2581 0
-2756 203 0
31 626 0
-914 -353 916 0
-2254 2255 0
-2099 -315 0
-2720 2721 0
-1388 -390 1389 0
-371 -51 0
-162 2274 0
-1126 415 1127 0
-649 -288 0
-1274 -340 0
-2136 2139 0
-2541 184 2543 0
-2481 384 0
-1385 -389 1386 0
-1421 262 1423 0
-907 356 0
-1296 1298 0
-930 372 0
-2438 2447 0
-1358 1359 0
-2083 2086 0
-853 -226 0
-934 374 0
-1346 225 1348 0
-114 113 0
-2850 2853 0
-1180 -276 1181 0
-1978 406 1979 0
-959 960 0
-2807 -211 2809 0
-1726 1727 0
-134 1982 0
-477 7 479 0
-964 966 0
-2571 2574 0
-2664 -194 2666 0
-34 644 0
-265 -43 0
-757 -275 758 0
-1084 1086 0
-2091 2100 0
-2324 -367 2325 0
-2427 -293 0
-1193 80 1194 0
-2560 2561 0
-1151 -247 1152 0
-2811 -283 0
-263 -105 0
-1094 387 1096 0
-616 265 0
-1298 -358 0
-2322 2325 0
-333 -201 0
-1178 -78 1179 0
-2603 -398 0
-325 -81 0
-1019 262 0
-1888 -416 0
-1686 -113 1688 0
-136 2006 0
-1198 1199 0
-890 -336 891 0
-2690 2693 0
113 1700 0
-1798 302 1799 0
-2228 2229 0
-960 963 0
-1208 -300 1209 0
-36 35 0
-2734 -295 2735 0
-561 564 0
-1205 -299 1206 0
-2333 168 2335 0
-1161 276 0
-2144 149 2146 0
-623 625 0
-1348 1352 0
-2415 2416 0
-404 403 0
-56 857 0
-88 87 0
-840 223 0
-2507 -435 0
423 2777 0
-2824 2827 0
-381 2494 0
-2362 2363 0
-527 -364 0
-691 696 0
-2482 2483 0
-129 1897 0
-1700 1701 0
-1778 1781 0
-695 698 0
-1493 -100 0
-2542 184 2544 0
-1062 -288 1063 0
-2320 -367 0
-998 -239 1000 0
-1825 1827 0
-178 2506 0
-948 63 950 0
230 0
-1816 -301 1817 0
-1948 380 0
-1369 389 1371 0
-2150 2151 0
-2209 381 2210 0
-1066 71 1068 0
-1834 1835 0
-463 465 0
26 592 0
-1408 -428 1409 0
-2433 -295 0
-455 -4 0
-1250 1253 0
-2213 -155 2215 0
-492 8 494 0
-2202 2203 0
-1276 85 1278 0
-472 473 0
-10 9 0
-2270 234 0
-2084 2087 0
-2720 198 2722 0
-2269 2270 0
-1829 327 0
-597 599 0
-2506 -435 2508 0
-840 841 0
-2102 -314 2103 0
-1904 1910 0
-378 377 0
-606 -30 608 0
-1384 1387 0
-1390 -390 1391 0
-488 -8 490 0
-184 2579 0
-62 61 0
-1569 1570 0
-1150 -247 0
-603 -29 605 0
-2430 -294 0
-2456 2457 0
-2334 168 0
-1674 1675 0
-247 -93 0
-1937 1938 0
-1651 -290 1652 0
-2218 2221 0
-1436 1439 0
-2442 329 2444 0
-150 2176 0
-1348 226 1350 0
-349 2195 0
-2240 -157 0
-791 49 0
-2468 177 2470 0
-1592 -229 0
-1947 379 1948 0
-581 -20 0
-1808 1809 0
-373 -71 0
-1944 1948 0
-1966 135 1968 0
-2638 -190 0
-2087 314 2088 0
-1755 -248 1756 0
119 1788 0
-967 -400 968 0
-2191 2192 0
-498 10 499 0
-1229 -80 1231 0
-520 525 0
-1145 -76 1147 0
-1081 -72 1082 0
-1937 134 1939 0
-216 2858 0
-524 527 0
-1465 -277 1467 0
-2376 -251 2378 0
-287 -55 0
69 1041 0
-1440 -263 0
-2076 143 2078 0
-1504 100 1506 0
-2258 2259 0
-869 58 870 0
133 1965 0
95 1444 0
-1476 1477 0
-246 1151 0
-1596 1597 0
-2078 2082 0
-814 815 0
-2321 2324 0
-74 1113 0
-2363 2364 0
-2260 -433 0
-352 351 0
-2121 2126 0
-1383 -389 0
-938 -62 940 0
-1323 -375 0
-714 -42 716 0
-1475 99 1477 0
-548 412 0
-1913 359 1914 0
-1036 69 1038 0
-994 241 996 0
-2323 -368 0
52 821 0
-1182 -278 0
-881 882 0
-2622 190 2624 0
421 2610 0
-162 2289 0
-1154 77 1156 0
-2550 349 2551 0
-1932 -362 0
-2130 2134 0
-1805 -121 1807 0
-2827 -214 2828 0
-1264 1265 0
-2493 2496 0
-41 714 0
419 0
-1352 227 1353 0
-1950 1957 0
-1730 1731 0
-1437 -262 0
-2497 2498 0
-1026 1029 0
-335 654 0
-1321 -374 1323 0
46 760 0
-1164 277 0
-1331 1332 0
-2821 307 0
-549 550 0
-780 -48 781 0
-2098 2099 0
-1316 1317 0
-1798 1802 0
-2865 2866 0
-35 663 0
-1078 1081 0
-2870 2872 0
-616 617 0
-1108 -74 0
-1332 402 1334 0
146 2108 0
-2298 -305 2299 0
70 1066 0
-152 2185 0
1 441 0
-13 543 0
-2605 421 2607 0
-1764 279 1766 0
-2844 -216 0
-2832 215 2834 0
-683 684 0
-1805 1812 0
-2232 2233 0
-2674 -306 2675 0
-803 804 0
191 2645 0
-1542 375 1543 0
-541 -14 0
-2052 2056 0
-2665 -194 2667 0
-310 1087 0
-1168 -76 1170 0
-326 325 0
-2577 370 0
-2770 204 0
115 1724 0
-871 875 0
-2284 2285 0
-2392 271 0
-1849 345 1851 0
-1095 387 1097 0
-2863 -361 0
-1284 357 1286 0
138 2014 0
219 0
-695 -239 0
-2667 2668 0
-1389 -391 0
45 739 0
-1397 428 0
-1404 -427 1406 0
-2005 2006 0
-1704 1705 0
-2358 -397 2359 0
-1185 1186 0
-790 49 792 0
320 799 0
-2010 2012 0
-2299 -306 0
-985 988 0
-878 885 0
-523 524 0
232 0
-2210 382 0
104 1561 0
-1438 -261 1439 0
-1443 -264 0
-305 -179 0
-2559 2564 0
-73 1110 0
-1997 136 1999 0
-128 127 0
166 2331 0
-873 335 874 0
-1435 1438 0
-1386 -390 0
-1959 1963 0
-2642 -282 0
-1683 359 1684 0
-149 2175 0
-1740 1741 0
6 477 0
-263 2275 0
-657 658 0
-2507 2508 0
-2746 2751 0
-2421 296 0
-323 -99 0
-977 426 978 0
-947 62 949 0
-1957 -134 1958 0
-2226 156 2228 0
-705 44 706 0
-2798 2803 0
-610 30 612 0
-42 715 0
-2336 2339 0
-1767 281 0
-1150 1152 0
-2831 214 2833 0
-1624 108 1626 0
-2641 2642 0
-1163 276 1164 0
-1344 -404 0
-737 274 0
-363 -37 0
-2056 268 2057 0
15 552 0
-2024 251 0
-1621 -266 1622 0
-434 433 0
-512 513 0
-725 -257 726 0
-2066 -268 0
-1277 85 1279 0
-2741 317 0
-121 1832 0
-1279 1280 0
-257 -15 0
-1261 1270 0
-2477 178 2478 0
165 2310 0
-607 -243 609 0
-2711 -437 0
-579 580 0
-1039 70 0
-622 624 0
-1666 -112 1667 0
-2841 -215 2843 0
-2428 -174 2429 0
