p cnf 3498 6544
-102 101 0
-49 930 0
-2958 2961 0
-1084 -333 0
-1714 1715 0
-2557 272 0
-501 3371 0
-2345 -367 0
-106 1685 0
-812 429 814 0
-2016 2023 0
-1014 1015 0
-3210 3211 0
-1238 -311 1239 0
-203 2920 0
-1781 1782 0
-1876 498 0
-2876 -307 2877 0
-3330 3331 0
-2916 370 2918 0
-3345 -239 0
-779 361 780 0
-1124 387 1126 0
-2630 2631 0
-1703 510 0
-1039 -493 0
19 646 0
21 22 23 24 345 346 0
-3397 3398 0
-901 905 0
-2130 2136 0
-2751 2755 0
-1726 -283 1727 0
-886 890 0
-3460 3463 0
-50 933 0
-1235 -311 0
-2216 2217 0
-1731 1737 0
-2617 -342 0
-3144 3147 0
-2609 -180 2610 0
-3212 460 3214 0
-3394 247 3396 0
-179 2630 0
-24 23 0
-1253 1254 0
-1011 -55 1013 0
-1063 331 0
-1397 -86 1399 0
-2098 2101 0
-1553 -314 0
-1798 1804 0
-460 3226 0
149 2287 0
73 1245 0
-2565 2571 0
-463 -41 0
-293 2585 0
-1320 1321 0
-1078 1083 0
-662 -22 0
-2870 2874 0
-3403 -247 3405 0
-76 75 0
-1121 65 1123 0
-3040 214 3042 0
-1255 403 0
-2385 471 2387 0
-108 1705 0
-2470 2471 0
-2170 2174 0
-453 2195 0
-3237 3238 0
433 2059 0
-3301 235 3303 0
-2455 2456 0
62 1069 0
-444 443 0
-1171 -431 1172 0
-1092 64 1094 0
-3203 -440 0
-1141 -387 1142 0
-2999 3002 0
-1500 -265 1501 0
-1739 303 0
-2257 -268 2259 0
-554 8 556 0
-211 3017 0
205 2932 0
136 2078 0
-3252 230 3254 0
-1090 1099 0
119 1845 0
255 3463 0
-1043 59 1045 0
-3344 -239 3346 0
-1880 1882 0
-904 -347 0
-3129 3134 0
-3271 232 3272 0
-375 936 0
-2931 -372 0
-1728 110 1730 0
-2787 424 2788 0
-155 2373 0
-1507 287 1509 0
-2291 152 2293 0
-1165 1167 0
-1175 479 0
-2039 -134 2040 0
-896 -48 898 0
-3151 221 3153 0
-1665 -432 0
-2763 -194 2765 0
-2734 2737 0
-2552 -484 0
-2066 -136 2068 0
-1952 1955 0
-3317 236 3319 0
236 3318 0
-547 -7 549 0
-207 2977 0
-3024 3025 0
-2380 158 2382 0
-2377 2378 0
-2348 -368 0
-366 365 0
-305 -177 0
-2820 -198 2822 0
-1748 -112 1750 0
-50 49 0
-3106 3107 0
-1196 -264 0
275 519 0
-895 896 0
-1828 418 1830 0
35 766 0
-3085 -326 3086 0
-1105 -63 1107 0
-591 489 0
-715 719 0
-3050 -295 3052 0
-541 8 543 0
-2577 -178 0
-345 666 0
-1744 1745 0
-729 -492 0
-1662 -431 0
-2359 395 0
-499 2414 0
-3158 3159 0
99 1582 0
-1787 1789 0
-3191 -223 3193 0
-500 499 0
-323 -97 0
-1639 -404 1640 0
-3278 3279 0
-1162 -67 1164 0
-2867 -305 2869 0
-563 564 0
-1552 -313 1553 0
-1718 283 0
-3098 3102 0
-2162 -142 2164 0
-2420 -285 2422 0
-3345 3346 0
-1633 -104 1634 0
-688 690 0
253 3459 0
238 3336 0
-2179 2180 0
-1397 1398 0
-281 1724 0
-739 34 740 0
-1962 129 1964 0
-188 2706 0
-3229 485 3231 0
193 2775 0
-2766 2770 0
-940 51 942 0
-596 14 598 0
-726 -491 0
-1051 -59 0
-795 -362 0
-98 1552 0
105 1652 0
-2438 320 0
-1926 1929 0
-2129 -139 2131 0
-869 -45 871 0
-3013 3014 0
-1970 335 1971 0
-2231 2232 0
-1584 1585 0
-2405 -472 2406 0
-2351 2352 0
-340 339 0
-822 824 0
-2591 2599 0
-220 3144 0
-3276 -231 3278 0
-1322 -280 0
-2402 -471 2403 0
10 573 0
-2838 2843 0
-1725 -283 0
-2864 -201 2866 0
247 3411 0
-1286 -465 0
-2447 -164 2448 0
-3143 3146 0
-2118 2122 0
-932 935 0
-3442 -412 0
-1718 1719 0
-3201 -438 3202 0
-1476 1481 0
-2927 -370 0
-2921 -205 2923 0
-3268 3272 0
-157 2395 0
-474 473 0
-2099 284 2100 0
-39 815 0
-2548 2551 0
-81 1343 0
-140 2160 0
-3185 437 3186 0
-1827 417 1829 0
-2074 -434 2075 0
-3290 372 0
204 2909 0
-1668 -433 0
-1502 94 1504 0
28 697 0
-2978 -209 2980 0
-1098 363 0
-2298 339 0
-2041 -406 2042 0
-604 605 0
-1879 -495 0
-1922 -126 1923 0
175 2558 0
-2602 342 0
-640 -20 642 0
-2920 2921 0
-1949 -128 1951 0
-2138 -305 0
-163 2455 0
-1692 -468 1693 0
-197 2807 0
-1612 102 1614 0
-2925 2927 0
-671 672 0
-2278 2280 0
-2440 2447 0
-1186 263 0
-1438 1439 0
-2740 -354 2741 0
-2205 2206 0
-1558 1559 0
-2040 2044 0
51 963 0
-314 313 0
-1761 -113 0
-2025 2029 0
67 1173 0
-1439 92 1441 0
-2588 2589 0
-367 2638 0
-694 28 0
-1563 1565 0
-197 2820 0
-3355 3356 0
-2280 -291 0
-843 844 0
-2857 307 0
-1125 387 1127 0
-2655 2656 0
-605 608 0
-3074 -215 3076 0
-2382 159 2384 0
-1670 -433 1671 0
-1621 405 0
212 3001 0
-3127 384 3129 0
248 3412 0
-2662 -185 2664 0
-3369 -242 0
-448 447 0
-393 2369 0
-910 49 912 0
-767 37 769 0
-1982 -335 1984 0
-2412 -498 0
203 2888 0
-3304 3307 0
-1293 1294 0
-493 -77 0
-1769 115 1771 0
-3489 3490 0
98 1559 0
-1709 -509 1711 0
-937 -377 938 0
-1298 1300 0
-781 -36 783 0
469 2081 0
195 2781 0
-219 3141 0
-2127 2128 0
-116 115 0
-3404 -247 3406 0
-3068 216 3069 0
5 526 0
-1600 -102 1602 0
-1532 -289 1533 0
-1647 1654 0
-1728 1729 0
-3012 -475 3014 0
-221 3189 0
-1412 1413 0
-466 1291 0
-3155 409 3157 0
492 1031 0
-3382 327 3383 0
-1552 1554 0
-828 831 0
-288 287 0
-1795 1796 0
-2562 2563 0
-1294 1297 0
-2599 339 2600 0
-2559 2568 0
-1479 1480 0
-1875 497 0
-2081 470 2082 0
-1376 -85 0
-1599 1600 0
-80 1340 0
-134 2043 0
-3411 3412 0
-2248 268 2250 0
-1662 1665 0
-2493 421 2494 0
-3095 356 0
-2419 -162 2421 0
-900 904 0
-2449 2453 0
-2932 206 2934 0
-481 -159 0
-2188 -143 2190 0
-422 421 0
-1807 1812 0
-96 1530 0
-2574 2579 0
-231 3291 0
-1364 -83 1366 0
-2370 -395 0
-2427 164 2429 0
-567 568 0
-3064 3065 0
-2417 2418 0
-2518 -172 0
-2021 405 0
-3034 -514 3036 0
-3357 242 3358 0
-90 89 0
-3025 514 3027 0
-2709 -500 2710 0
-912 920 0
-766 36 768 0
-2766 -382 0
262 1187 0
-3086 -327 3087 0
-148 2255 0
-883 345 0
-3251 3252 0
-2401 -160 2402 0
-1386 1387 0
-202 2894 0
-2109 -285 2110 0
-2583 -294 2584 0
-1422 417 0
-2325 365 2327 0
489 718 0
-956 -413 958 0
-3207 226 3209 0
-1769 1770 0
-2998 3001 0
-744 746 0
-389 -73 0
-3303 3304 0
-696 413 0
-636 464 0
-435 2669 0
-564 569 0
278 0
217 3120 0
-3138 3142 0
-3220 -226 3221 0
-3080 3083 0
-2462 166 2464 0
-2799 -425 0
-2451 -317 2452 0
71 1201 0
-2603 2604 0
-2677 188 2678 0
-443 -67 0
-1241 -311 1242 0
-3370 3371 0
-2885 2891 0
40 804 0
-1070 332 1071 0
-144 2215 0
-1512 288 1513 0
-1199 71 0
-1903 1904 0
-2515 -424 0
-2584 -295 0
-2928 -370 2929 0
-2024 2028 0
-3333 -425 3334 0
-3437 3438 0
-1966 1969 0
-2130 -140 2132 0
-3124 220 3126 0
-2869 -306 0
-870 -45 872 0
-1490 264 1491 0
-185 2685 0
-2271 2272 0
-3397 248 0
-449 2989 0
-1177 -68 1179 0
-1366 1368 0
-2801 -423 2802 0
-34 760 0
-311 -43 0
-917 376 0
-912 50 914 0
-1158 431 1160 0
-64 63 0
-1481 -494 1482 0
-184 183 0
-909 910 0
-407 -155 0
-2458 2459 0
-798 -40 0
-1433 1435 0
-1676 1677 0
-593 594 0
-5 535 0
-1284 -78 0
206 2933 0
-2220 2223 0
-1496 1500 0
-1011 1020 0
-2987 2990 0
-2525 2526 0
-1696 108 1698 0
65 1129 0
-453 -29 0
-3050 3055 0
-1928 -290 1929 0
-363 -99 0
-3399 248 3400 0
-1910 291 0
-3199 -438 3200 0
-679 -24 681 0
-350 1789 0
-2831 272 2833 0
-3112 3116 0
-3054 3057 0
-1432 -416 1433 0
-1043 1044 0
-2075 -435 2076 0
-2592 2593 0
-1433 -417 0
-1810 1811 0
189 2713 0
-1112 -362 0
-2635 2637 0
-2577 2578 0
-47 901 0
-1630 1634 0
-1140 -66 1141 0
-3296 -371 0
-1168 1170 0
-971 54 972 0
-2855 305 2856 0
-2644 2645 0
-2200 145 2202 0
-2889 341 2890 0
-191 2734 0
-1215 1216 0
-2031 -132 2033 0
18 629 0
-2245 2246 0
-1378 -347 0
-3241 -486 0
-447 2377 0
-354 353 0
-3304 397 0
-3373 297 0
-946 414 0
-1584 101 1586 0
-38 37 0
-1440 92 1442 0
-1271 77 1273 0
-2370 2372 0
-3101 356 3102 0
-1287 1289 0
-499 -173 0
-3498 -516 0
-883 884 0
-2055 434 0
-381 -181 0
-1650 1651 0
-1887 265 1889 0
-3439 -252 3441 0
-1963 129 1965 0
-3311 -236 3313 0
-3219 3221 0
-2218 -146 0
-1732 1733 0
-3348 -451 0
-2720 354 2722 0
-230 3263 0
-1809 -118 1811 0
-3482 488 0
-1232 1238 0
-1983 -336 1985 0
-650 -20 652 0
-192 2737 0
-2219 -479 0
-2523 172 2525 0
-1934 128 1936 0
359 0
130 1970 0
-3139 -220 0
-495 1881 0
-292 291 0
-1318 1319 0
-775 780 0
-2566 2567 0
-1842 1844 0
-3235 487 3236 0
-73 1237 0
-2910 205 2912 0
-1591 379 0
-3289 371 0
-712 30 714 0
-2985 -450 0
-611 -388 0
-231 3280 0
20 647 0
-1028 492 0
-1454 -92 1456 0
-1967 1970 0
-2934 2935 0
-1666 1669 0
-1563 333 0
-2975 451 2976 0
91 1466 0
-3044 296 0
-2618 2619 0
61 1065 0
-2754 2758 0
-1118 -364 0
41 827 0
-3013 -475 3015 0
-682 -26 0
-2484 -381 2485 0
-3384 -244 3386 0
-1365 -83 0
-1572 1573 0
-2206 480 2208 0
-193 2767 0
-603 388 0
-328 327 0
-1825 120 1827 0
-2039 2043 0
-13 604 0
-1442 443 1444 0
150 2288 0
-12 11 0
74 1246 0
-1897 -266 1898 0
-2184 455 2186 0
-857 858 0
-2084 472 0
-2199 144 2201 0
-2750 382 0
-2164 2169 0
-1720 -110 1722 0
-2439 -162 2441 0
-2873 2877 0
493 1472 0
-2353 2354 0
-1706 1707 0
-2923 -206 0
-924 925 0
-2428 317 2430 0
-808 427 810 0
-462 461 0
-3198 3201 0
-2012 2014 0
-216 3082 0
-3260 3262 0
-1955 -315 1956 0
-2478 2480 0
-257 3495 0
-1589 1595 0
-3002 3005 0
280 0
-2760 2767 0
-2841 2842 0
-353 2740 0
-2540 2541 0
-2800 -196 2801 0
-748 -33 750 0
-869 874 0
-2638 -368 2639 0
-1134 -64 1136 0
-2762 -194 2764 0
-1886 265 1888 0
-2806 -197 0
-2225 -481 0
-1359 1360 0
-3481 487 3482 0
-712 713 0
-2908 2909 0
-2691 -473 2693 0
-387 -49 0
-1426 1427 0
-1462 -445 0
-852 -259 854 0
-1714 281 1716 0
-1546 1547 0
-2044 -406 2045 0
-764 765 0
-991 -441 992 0
-1671 -434 0
333 1566 0
-302 301 0
-3208 226 3210 0
-584 588 0
-1551 1553 0
-1041 58 1043 0
-794 -361 795 0
-118 1815 0
-1493 1494 0
-3042 3043 0
-2176 143 2178 0
-3133 385 3134 0
-277 -43 0
-425 -207 0
-2380 2381 0
-181 2634 0
-2222 -480 0
-1034 -491 1036 0
-82 1364 0
-451 -223 0
-459 2811 0
-3167 3169 0
-1467 493 1469 0
-2656 436 2658 0
-1680 1681 0
-333 -83 0
-222 3168 0
-2605 -179 2607 0
-436 435 0
-1416 90 1418 0
-1273 78 1275 0
-3292 3295 0
-1281 1282 0
-3477 3478 0
-67 1177 0
246 3394 0
70 1182 0
-3069 325 3070 0
-1889 266 1891 0
-225 3220 0
37 776 0
-2852 305 0
-965 966 0
-2893 -202 2895 0
-459 -209 0
-1383 1392 0
-3238 -485 3240 0
-2802 -424 2803 0
18 618 0
-3188 440 0
-2115 2116 0
-521 5 523 0
-1333 1334 0
-2310 -338 0
-2919 372 0
-2639 2641 0
-2882 2883 0
277 734 0
-1453 1454 0
-83 1367 0
-2805 -196 0
-539 7 541 0
-3265 3266 0
-1691 -468 0
-3192 -224 3194 0
-2722 2727 0
-104 1658 0
-1940 1945 0
-753 754 0
-2949 2950 0
-1520 1521 0
-1220 1224 0
-816 819 0
-2769 2773 0
-276 275 0
-1918 -125 1920 0
-1282 1285 0
-1929 -291 1930 0
-529 -4 531 0
-2894 2899 0
485 3234 0
-3079 3082 0
-2815 484 2817 0
-676 375 678 0
-3199 3202 0
-3384 3385 0
-325 -163 0
-888 892 0
-1430 -415 1431 0
-272 -271 -270 -269 -176 -175 0
-111 1752 0
-3441 -411 0
-410 409 0
-3146 3149 0
-3249 228 3251 0
-3256 308 0
-1060 62 1062 0
-1255 1256 0
-3451 3452 0
-2517 -171 0
-324 1765 0
-2320 2329 0
-2319 152 2321 0
-3277 -232 3279 0
-939 940 0
-1615 1623 0
-457 0
-1260 1262 0
-1392 88 1393 0
-1892 268 0
-653 -504 0
-2324 2331 0
-1178 -479 1180 0
-1322 1323 0
-3000 476 0
-1701 509 0
-540 541 0
-177 2579 0
-62 1105 0
-1510 96 1511 0
-2089 2090 0
-2872 2876 0
-78 77 0
-1307 1308 0
-1609 -378 1610 0
-660 661 0
-33 759 0
-3194 -437 0
-833 505 834 0
-2520 -456 0
-1559 99 1561 0
-1846 121 1848 0
-3239 3240 0
-1729 1736 0
-150 2281 0
-1432 1434 0
-1510 1514 0
-3001 3004 0
-1792 1801 0
-1783 -116 1784 0
-2219 2222 0
23 667 0
-2059 434 2060 0
-790 793 0
-250 249 0
-2986 2989 0
-2339 2342 0
-1133 390 0
-1666 -431 1667 0
-2281 2283 0
-1796 1803 0
-1197 70 1199 0
-754 -310 756 0
-377 -85 0
-1854 447 1856 0
-3291 3292 0
-247 3408 0
-1935 128 1937 0
-2748 2753 0
-1380 -349 0
-1319 1324 0
-1882 1884 0
-3111 3115 0
27 28 29 30 441 442 0
-2406 2409 0
-3373 3374 0
-144 2193 0
-1566 1568 0
-105 1663 0
-1428 -90 1429 0
-2791 -195 2793 0
-157 2375 0
-563 -8 565 0
-2868 -305 0
-3336 239 3338 0
-384 383 0
-1167 1169 0
-1891 1892 0
-151 2311 0
76 1270 0
-3341 451 0
-1229 1230 0
-3425 3426 0
-1939 316 0
-525 528 0
-1102 363 1103 0
-529 530 0
-3026 3027 0
-1524 -287 0
-658 -22 660 0
-321 -73 0
57 1041 0
-52 51 0
-2183 454 2185 0
-625 -427 627 0
-172 171 0
-1650 432 0
-897 898 0
-395 -167 0
-3307 398 0
-439 -237 0
-2598 180 2599 0
-3170 -410 3171 0
-581 582 0
-244 3385 0
-1856 448 0
-2009 -363 2010 0
-1297 506 1298 0
-701 702 0
-1920 -126 0
51 943 0
-235 3326 0
-3160 3161 0
-2644 -184 0
-441 -41 0
-125 1922 0
-784 788 0
-2980 2984 0
-768 769 0
-3492 515 3494 0
-306 305 0
-58 1050 0
-3065 326 3067 0
-3027 3030 0
46 878 0
-2085 -136 2087 0
-859 44 861 0
-2067 -433 2069 0
-749 -33 751 0
-1136 1137 0
-2685 2686 0
-3490 -488 0
-103 1657 0
-1975 338 0
-677 375 0
-2491 421 0
-1673 107 1675 0
-2953 -208 2954 0
-35 781 0
-2632 2633 0
-2768 2772 0
141 2175 0
-2980 -210 2982 0
-2613 -340 2614 0
-2510 2515 0
-1091 63 1093 0
-1473 495 1474 0
-806 42 808 0
-2530 2536 0
-60 1074 0
-1586 1587 0
-1359 322 1361 0
-1905 126 1907 0
-1694 -469 1695 0
-1254 403 1256 0
-26 25 0
-146 145 0
-2177 143 2179 0
-2824 2826 0
-1731 112 1733 0
-2120 2124 0
-2018 134 2020 0
-1017 -464 1019 0
-2749 381 0
-2655 435 2657 0
-633 636 0
-309 -21 0
-457 -185 0
169 2492 0
-695 697 0
-383 3147 0
-3150 220 3152 0
-2472 2473 0
-1001 1004 0
-401 1265 0
-2065 2073 0
-1525 1529 0
-1744 -110 1746 0
-61 1104 0
-2637 -368 0
-2589 2598 0
-280 279 0
33 739 0
-1312 280 1314 0
235 3317 0
-2554 2555 0
-666 -346 0
-3321 3322 0
-865 46 866 0
-2272 293 2274 0
-3434 412 0
-2315 -337 2316 0
-441 711 0
-1159 431 0
-468 0
-2285 -293 2286 0
-1347 -300 1348 0
-1936 315 1938 0
-2922 2923 0
-276 -275 -2 -1 0
-1897 1899 0
-3119 -358 0
-1400 -88 1402 0
-3446 3448 0
-165 2457 0
-3388 3389 0
-2664 2666 0
-1645 106 1647 0
-3057 -298 0
-1025 56 1027 0
-783 -37 785 0
-1177 1178 0
-1074 -61 1076 0
-1440 1441 0
14 594 0
-709 -30 0
-1228 314 0
-2207 2208 0
-1560 1561 0
77 1293 0
-826 -430 0
-2867 2872 0
-2676 188 0
-730 32 0
-2327 2328 0
-2959 -396 2960 0
-1796 391 1798 0
-996 55 998 0
-2279 -150 2280 0
-2824 -484 2825 0
-1565 1567 0
-2988 -451 0
-3014 -476 3016 0
-688 -375 0
-998 56 1000 0
-1873 496 1875 0
-3326 -236 3328 0
-1627 1628 0
-2648 -410 0
-845 846 0
-1344 -299 0
-453 -91 0
-1612 1613 0
129 1991 0
-1015 -463 1017 0
137 2111 0
-233 3295 0
-714 489 716 0
-2816 484 2818 0
-2939 2945 0
-3166 3168 0
-1452 1457 0
-450 449 0
-871 -46 873 0
-3228 3229 0
-2810 -459 0
-1699 1701 0
148 2246 0
-2488 169 2490 0
-1981 1988 0
-2987 -450 2988 0
-2062 2063 0
-233 3308 0
-832 505 0
-3380 327 0
-979 980 0
-561 399 562 0
-2905 -342 2906 0
101 1612 0
-1746 1747 0
-355 -203 0
-2371 -395 2372 0
-2984 -449 2985 0
-29 721 0
31 735 0
-1162 1165 0
-3115 3119 0
-2129 2130 0
271 0
-2122 305 0
-982 988 0
-1949 1953 0
-3362 3363 0
-1845 120 1847 0
-2265 149 2267 0
-1933 1934 0
-1109 1112 0
-2825 -485 0
-2061 436 0
-2397 -159 2399 0
-2700 500 2702 0
-185 2665 0
-1270 77 1272 0
-2804 -426 0
-1414 1415 0
-1191 -261 1193 0
-75 1261 0
-1534 1535 0
-3120 218 3122 0
-45 874 0
-2195 -454 2196 0
-65 1161 0
109 1728 0
-2121 2125 0
-1505 96 1507 0
-3292 -233 3294 0
-2228 -482 0
-2615 -340 2616 0
-721 -30 723 0
-1601 1602 0
-2356 394 2358 0
-992 -442 993 0
-1583 1592 0
-2204 2211 0
-1664 1667 0
-1354 84 1356 0
-20 651 0
175 2553 0
-2208 2213 0
-944 946 0
-2231 509 0
-2622 182 2624 0
-1230 -73 1232 0
-564 -9 566 0
-3221 -459 0
-1627 -102 1629 0
-424 423 0
-2135 2139 0
237 3323 0
-3272 343 3273 0
-2645 -407 0
-3222 3224 0
-3414 250 0
-1101 362 1102 0
-3279 -343 0
-953 954 0
-1720 1721 0
-1514 287 1515 0
-1684 -106 1686 0
-78 1302 0
-3105 3112 0
-822 -428 0
-554 555 0
48 889 0
-2245 148 2247 0
-455 2520 0
-1537 98 1539 0
-898 903 0
177 2588 0
-159 2410 0
-1388 1389 0
-3458 -440 0
-3126 383 3128 0
-1742 303 1743 0
-2048 2053 0
-1508 1509 0
-3177 3185 0
-681 -25 0
-264 263 0
-3000 3003 0
-115 1783 0
-2538 2539 0
-1647 431 1649 0
-1455 1456 0
-2280 2282 0
143 2199 0
-3066 326 0
-3433 411 3434 0
151 2319 0
-369 -191 0
-2042 2046 0
-225 3237 0
-910 919 0
-1638 1641 0
-2605 2606 0
-2147 142 2149 0
-142 2188 0
-2068 -433 2070 0
-1834 -119 1836 0
-3372 3373 0
-1700 1702 0
-2829 2834 0
-1642 1643 0
-908 -348 0
-778 360 779 0
-3192 3196 0
-398 397 0
510 2235 0
-2338 -154 0
-2445 -317 0
-415 -65 0
-3268 232 3270 0
-90 1452 0
-922 377 923 0
-3012 3019 0
-2513 -422 2514 0
-3439 3440 0
-2527 174 2529 0
-79 1318 0
-805 41 807 0
-2355 393 2357 0
-1467 1472 0
-2777 2778 0
-3016 3021 0
-2476 2477 0
-1005 1008 0
-2472 381 0
-1368 1370 0
-1353 83 1355 0
-3466 462 0
-36 762 0
-2077 2078 0
-1052 1054 0
-66 65 0
-1448 444 1449 0
-648 649 0
-866 321 867 0
-186 185 0
-3205 225 3207 0
-3420 -249 3422 0
-1678 1679 0
-2247 267 2249 0
-1181 70 1183 0
-1377 1378 0
-1135 1140 0
-435 -169 0
-1732 112 1734 0
-2172 -420 2173 0
-2668 2670 0
-2426 2432 0
-2388 472 0
-850 262 0
-379 -153 0
-2504 2512 0
-1964 1968 0
-2731 2735 0
-238 237 0
-500 2711 0
-689 -375 690 0
-1821 118 1823 0
-3114 3118 0
194 2755 0
-2604 -179 2606 0
-2850 202 2852 0
-2271 292 2273 0
-2180 453 2182 0
-1667 -432 1668 0
-1554 1556 0
-3361 -241 3363 0
-1724 -282 1725 0
-161 2419 0
-1741 302 1742 0
-3024 513 3026 0
-1616 1617 0
-123 1893 0
-2341 2344 0
-3370 -501 0
-970 974 0
-372 371 0
-1832 420 0
-2646 2647 0
-1217 1218 0
-3170 3172 0
-3413 3414 0
489 592 0
31 0
-1984 1985 0
-2476 -167 0
-2494 422 0
131 2015 0
413 947 0
-1519 1526 0
-24 680 0
-517 518 0
-1007 464 1008 0
-2713 2714 0
-399 -15 0
-449 2379 0
-1342 1344 0
-1677 467 1679 0
-227 3246 0
-2051 2052 0
-997 55 999 0
-322 1373 0
-40 39 0
-622 623 0
-209 3007 0
-431 -75 0
-2957 -396 2958 0
-3472 -461 3474 0
-160 159 0
-1289 1291 0
-2346 -366 2347 0
-2689 -188 2691 0
-1813 1816 0
-3386 -245 3388 0
-2309 -337 0
-1351 1352 0
111 112 113 114 323 324 325 326 0
-3475 256 3477 0
-2295 152 2296 0
-353 -179 0
228 3250 0
-1899 -267 1900 0
-600 16 602 0
-694 696 0
-2486 2487 0
-158 2396 0
-1774 350 1776 0
9 560 0
-1404 -389 1405 0
-294 293 0
-2906 -343 2907 0
-1223 1227 0
-2166 -420 0
-3335 3336 0
-2501 -168 2503 0
-2275 -148 2277 0
-763 -330 0
-3093 3098 0
-2553 2554 0
-403 1639 0
-3375 244 3377 0
-3321 238 0
-95 1526 0
-2673 2674 0
-1763 -323 0
-3398 3401 0
-2948 -207 2950 0
-3006 478 0
-169 2516 0
-587 -12 588 0
-147 2275 0
-1668 1671 0
258 3492 0
-346 345 0
-1853 1854 0
-3082 3085 0
-3042 295 3044 0
-2678 2680 0
-3402 3403 0
-1278 467 1280 0
-2620 2621 0
-26 700 0
-948 950 0
-1191 1192 0
-3215 462 0
-643 -20 644 0
-2701 500 2703 0
-769 777 0
-2558 176 2560 0
-549 551 0
-2041 2045 0
-773 779 0
-2807 2808 0
-619 428 0
-141 2187 0
-14 13 0
-1860 -122 0
151 2295 0
-134 133 0
-198 2821 0
-475 -197 0
-616 618 0
-859 860 0
-6 547 0
-240 3349 0
-266 1899 0
-2768 -381 2769 0
-890 346 891 0
-1632 -403 0
-1908 1914 0
-2519 -455 0
-1355 84 1357 0
-2995 2999 0
-683 685 0
146 2230 0
-926 927 0
-726 729 0
-1616 104 1618 0
-2460 2461 0
-1046 299 1048 0
-2295 2299 0
-241 3366 0
24 668 0
-1917 1922 0
-1513 1517 0
-135 2072 0
-268 267 0
-2222 2225 0
-2542 2543 0
-3334 -426 0
-1760 1761 0
-117 1833 0
-1958 -316 1959 0
-2284 2286 0
-3067 3072 0
-2527 2528 0
-1533 -290 0
-3383 328 0
-2647 2648 0
-555 560 0
233 3299 0
-1841 -418 1842 0
-2910 2911 0
-135 2085 0
-1536 97 1538 0
-1827 1828 0
-1823 119 1825 0
-2594 2595 0
-1538 98 1540 0
-423 -183 0
-1819 -393 1820 0
-2316 -338 2317 0
-836 -503 838 0
-1185 1187 0
-1306 -507 1308 0
269 2555 0
-1252 402 1254 0
-1080 -332 0
-1548 1549 0
-2965 210 2967 0
-1290 1292 0
-3049 -214 3051 0
199 2846 0
-3218 -225 0
-2539 2544 0
-931 -375 932 0
-3496 -515 3498 0
-108 107 0
58 1042 0
-2382 2383 0
-2547 -481 2548 0
-2680 474 0
-2960 -397 2961 0
-2848 2849 0
-3009 -211 3011 0
-2809 -458 0
-3318 237 3320 0
-3467 -254 3469 0
-1682 1683 0
-19 650 0
-3216 3217 0
-3417 385 3418 0
-2643 -183 0
-986 -442 0
-1487 1491 0
-242 241 0
-3221 3223 0
-967 968 0
-1850 445 1852 0
-1325 -281 1326 0
-2516 2517 0
-1734 1735 0
-3283 3284 0
-3445 253 0
-209 2983 0
-343 -215 0
-2501 2502 0
-3041 3046 0
-2579 2582 0
-923 378 0
-2563 293 2565 0
-1335 1336 0
-1356 321 1358 0
-2034 -134 2036 0
-1626 406 0
-2022 406 0
-2884 2885 0
-1390 390 0
-1437 1446 0
-3354 242 3356 0
-755 756 0
-2708 2710 0
-126 1947 0
-2951 2952 0
-1943 316 1944 0
-1441 1448 0
-1522 1523 0
-1482 -495 1483 0
-1222 1226 0
-1201 72 1202 0
-2776 2781 0
-481 2550 0
275 0
-1414 89 1416 0
-807 808 0
-1574 1575 0
-3081 3084 0
-3007 -210 3009 0
-1212 -288 0
-2716 2724 0
-223 3195 0
-409 -193 0
-2962 208 2964 0
-3386 3387 0
-1740 301 1741 0
-1934 1942 0
-3214 461 0
-1833 -118 1835 0
-1266 -403 0
-1793 117 1795 0
-851 -44 853 0
-2481 2483 0
243 3375 0
-2423 2424 0
-1938 1944 0
-412 411 0
-571 -400 0
19 634 0
-2948 2953 0
-1200 72 0
-429 -51 0
-311 -59 0
-1707 -508 1709 0
-1403 1406 0
-89 1451 0
-2952 2955 0
-941 942 0
258 3481 0
-2306 2312 0
-2490 2491 0
-2737 -353 2738 0
-1708 1709 0
-1044 60 1046 0
-3257 3258 0
-186 2686 0
-2310 2314 0
-1528 1532 0
-542 543 0
-2153 420 2154 0
-3319 237 3321 0
-1766 -326 0
-2091 2092 0
-1906 289 1908 0
-1309 1310 0
-3262 3264 0
-662 663 0
-289 1928 0
-2973 449 2974 0
-35 761 0
-3457 -439 0
-1775 1776 0
-430 1171 0
-3387 -246 3389 0
-964 971 0
-1870 495 1872 0
-363 -115 0
53 995 0
-586 -453 0
-1872 496 1874 0
-1376 1377 0
-2682 2684 0
-91 1475 0
-568 -399 0
-2036 2041 0
-3282 -344 0
-2221 2224 0
-2480 -379 2481 0
-708 -29 0
-2988 2991 0
-2283 2285 0
-1258 1261 0
-181 2642 0
-159 2401 0
-2544 -174 2545 0
-2086 -469 2088 0
-796 797 0
-132 2009 0
-2992 2993 0
-2898 -341 0
-2103 2108 0
245 3393 0
-781 782 0
-1053 -60 1054 0
-2661 -184 2663 0
-1700 508 1701 0
-2313 -338 2314 0
-501 -211 0
-690 -376 0
-2775 194 2777 0
-863 864 0
-1636 -403 1637 0
-3360 3361 0
-3062 216 3064 0
-1688 1690 0
-2106 -284 0
-520 4 522 0
-863 46 0
138 2112 0
-2465 168 2467 0
-2949 -207 2951 0
-2397 2398 0
-90 1430 0
-386 385 0
-2475 2478 0
-1866 -447 0
-2042 -407 0
-3113 -355 3114 0
-3242 3245 0
-2217 2221 0
-1231 1232 0
-3180 437 3182 0
-2410 -160 0
-3427 3428 0
-1137 -66 1139 0
183 2649 0
-3169 3171 0
-915 916 0
-2464 2465 0
-2593 339 2595 0
-171 2538 0
-2976 452 0
102 1613 0
-2697 188 2699 0
-2832 2833 0
-2190 -144 0
-255 3483 0
-174 173 0
-2349 154 2351 0
-860 865 0
26 692 0
-2051 136 0
-2769 -382 2770 0
-1852 446 1854 0
-583 584 0
-2190 2192 0
-703 704 0
-2444 -317 2446 0
-1470 1471 0
-1234 -311 1236 0
-523 527 0
-1031 493 1032 0
-1902 125 1904 0
-2322 154 2324 0
-2797 2803 0
-650 651 0
-2199 2200 0
-3428 3431 0
-1310 1315 0
-770 771 0
-2966 2967 0
-308 307 0
-1237 1241 0
-1335 300 1337 0
-1586 102 1588 0
-3224 -460 3225 0
-2733 -353 0
-1298 507 0
-111 1760 0
47 885 0
-3248 -274 0
-1138 1139 0
-809 427 811 0
-1153 68 1155 0
-2112 139 2114 0
-837 838 0
-2687 2688 0
-2849 2855 0
-2006 -132 0
-526 6 527 0
-1902 1911 0
-2969 2975 0
-2904 -343 0
-965 53 967 0
-360 359 0
-976 442 977 0
-1479 -494 0
-2286 -294 0
-1667 1670 0
-1757 -302 1758 0
-2926 -369 2927 0
-3099 357 0
-1370 -322 0
-1205 1206 0
253 3447 0
-2215 -145 2217 0
-1915 292 0
-2100 285 2101 0
-2134 -304 0
101 1592 0
-2256 -267 2258 0
-1167 -429 1168 0
-837 -503 839 0
-2978 2983 0
-3163 3166 0
-2616 -341 2617 0
-2701 2702 0
-1503 95 1505 0
-2653 186 2655 0
-1750 -301 0
-28 27 0
-978 444 0
-459 3224 0
-2806 2807 0
-301 -95 0
-148 147 0
134 2048 0
-1076 -62 1078 0
-1099 64 1100 0
-92 1476 0
-2628 369 0
-1339 1340 0
-615 617 0
-3072 328 0
188 2698 0
-1610 -379 1611 0
-2106 2107 0
-677 678 0
-1402 1405 0
162 2416 0
-2524 2533 0
-1788 -351 0
-1344 1346 0
-248 3420 0
-682 684 0
-2528 481 2530 0
247 3399 0
-624 625 0
-2474 2475 0
43 859 0
-162 161 0
-2454 -320 0
-903 -346 904 0
-1527 1531 0
-2940 2941 0
-2062 -134 2064 0
-3076 3080 0
-3381 246 3382 0
-282 281 0
-2294 2298 0
277 0
-1527 -287 1528 0
-1655 433 1656 0
-3003 3006 0
-2813 483 2815 0
-1913 290 1914 0
-811 812 0
-3308 3309 0
-2661 2662 0
152 2320 0
-1578 1579 0
-631 635 0
-2035 -134 2037 0
-3427 250 3429 0
-334 333 0
-2894 -203 2896 0
-3448 3450 0
259 847 0
-1427 -90 0
-2666 2668 0
-469 -121 0
-775 361 0
-351 -129 0
-1179 1180 0
-319 -177 0
-3375 3376 0
-2728 2729 0
-1946 1947 0
-3495 3496 0
-2125 305 2126 0
-1941 128 1942 0
-2788 425 2789 0
-2016 133 2018 0
-2675 2676 0
-2294 338 0
-2 1 0
187 2677 0
-331 765 0
-1066 1070 0
-2071 -435 0
-3258 -229 3260 0
-122 121 0
-443 1463 0
-3077 -216 0
-1371 1373 0
-1313 1314 0
-1840 -418 0
-2862 2863 0
-2694 -475 2696 0
-1310 279 1312 0
-2634 -182 2635 0
-3168 3170 0
-3263 -307 3264 0
-2270 292 2272 0
-1979 -130 1981 0
-3230 3231 0
-610 -387 611 0
-136 135 0
-2225 2228 0
-2907 -344 0
-2934 207 2936 0
-256 255 0
-121 1877 0
-2136 -303 2137 0
-416 1434 0
-1748 1749 0
-2853 306 0
239 3351 0
-785 786 0
-701 -27 703 0
-2619 181 2621 0
-2143 140 2145 0
-2937 2944 0
-3364 3365 0
-1935 1936 0
-705 -413 0
-1153 1154 0
-2318 -340 0
-1531 -288 1532 0
-2432 317 2433 0
-973 977 0
-1536 1537 0
-2796 -423 2798 0
-549 -8 0
-97 1550 0
-2649 2650 0
-1055 -299 1056 0
-2770 2774 0
-2758 384 0
-1098 1103 0
-2007 2009 0
-1311 279 1313 0
-854 -260 856 0
-96 95 0
-1754 -302 1755 0
-1717 283 1719 0
-1345 1347 0
-1588 1589 0
185 2673 0
-3314 -236 3315 0
-2467 379 2469 0
-1637 -404 1638 0
-1107 1111 0
-37 796 0
116 1792 0
-2642 -182 0
-2899 2902 0
-2466 168 2468 0
-2137 2141 0
-1634 -403 1635 0
-3204 3205 0
-2257 2261 0
-110 109 0
-595 360 0
-1911 126 1912 0
-230 229 0
-955 956 0
-3027 515 0
-746 312 0
-1722 1723 0
-1555 -315 0
-1951 -315 0
137 2093 0
-237 3343 0
-984 -441 986 0
-457 2522 0
-762 -329 0
-289 -109 0
-1604 1607 0
-2387 2393 0
-1371 -322 1372 0
220 3151 0
-1968 335 1969 0
-2556 2557 0
-1909 1910 0
-2524 173 2526 0
-1127 1128 0
-856 -261 858 0
-1218 311 1220 0
-1259 -75 0
-1446 92 1447 0
-1972 1975 0
-1642 104 1644 0
82 1352 0
-1477 -493 1479 0
-2233 510 2234 0
-3463 3465 0
-1445 445 0
-2681 2683 0
-1976 1977 0
-2897 -204 0
-2135 -140 2136 0
-2794 -196 2796 0
-2282 2284 0
-1613 103 1615 0
-3232 486 0
-130 2004 0
-1859 -121 0
-2810 2811 0
-2589 179 2591 0
207 2942 0
31 730 0
-1081 1085 0
-1992 131 1994 0
-1644 1645 0
-418 1843 0
-341 -189 0
-2411 2412 0
-3478 258 0
-400 399 0
-1629 1630 0
-203 2899 0
-894 -47 896 0
-1638 -405 0
-3178 3179 0
-88 1425 0
-3264 -308 0
-3407 -357 0
-1279 467 0
-2761 -193 2763 0
-299 -71 0
-1126 388 1128 0
-204 203 0
-2847 201 2849 0
-3424 -385 3426 0
-1696 1697 0
-1049 1050 0
279 0
-2298 2302 0
-2483 2485 0
-1112 1115 0
-2079 2080 0
-1504 95 1506 0
-1054 1056 0
-2846 2847 0
-2430 318 0
-1763 1764 0
-418 0
-3312 3313 0
-217 3135 0
-2625 368 2627 0
-1957 -317 0
-2608 2611 0
-179 2609 0
-3190 3195 0
-2008 -363 0
-1274 465 1276 0
-2668 -436 0
-692 27 694 0
-2670 2672 0
-2735 -353 2736 0
-1484 1485 0
270 2556 0
-425 -221 0
-1950 1951 0
-204 2902 0
-407 -167 0
-2163 -142 2165 0
-1079 -331 0
-1124 1131 0
-2160 -141 2162 0
-1184 262 0
-1528 -288 1529 0
-1114 -362 1115 0
-453 -41 0
-1551 -313 0
-2138 2142 0
-1385 88 1387 0
-851 852 0
-2780 423 0
-589 -454 0
-1658 -105 1660 0
-583 -11 585 0
-49 951 0
-1618 1619 0
56 1004 0
-2808 -457 0
-2028 406 2029 0
-761 -36 0
-374 373 0
-1351 82 1353 0
-146 2223 0
-2025 406 2026 0
-2503 -169 2505 0
-2124 304 2125 0
-1800 393 0
-985 -441 0
-1771 116 1773 0
-3343 -238 3345 0
-2950 -208 2952 0
-686 -374 0
-2782 423 2783 0
-1652 106 1653 0
-3298 -372 0
-1332 299 1334 0
-1583 101 1585 0
-1028 1030 0
-364 2013 0
-3224 3226 0
-2820 2821 0
-3302 3306 0
-2764 -381 2766 0
-2506 -421 2508 0
-1727 -284 0
-2571 295 2572 0
-1815 1818 0
-2744 193 2746 0
-2582 2585 0
-1054 -299 0
-1288 -466 0
-110 1721 0
-691 692 0
-1862 1864 0
221 3174 0
-490 -489 -12 -11 0
-1657 -104 1659 0
-155 2365 0
-2929 -371 0
-696 698 0
-325 3085 0
-2187 2188 0
-2496 422 2497 0
-325 -177 0
-1745 1752 0
-214 3074 0
-3411 248 3413 0
-3478 3480 0
-2250 2253 0
-3306 397 3307 0
-2555 2556 0
-2054 2057 0
-1997 363 1999 0
-2132 2137 0
-2823 -484 0
-2133 -303 0
-2359 2360 0
-1160 432 0
-348 347 0
-3084 3087 0
-3449 439 3450 0
-830 832 0
-2680 2682 0
-578 12 579 0
-862 46 864 0
-237 3332 0
244 3376 0
-2459 -352 0
-1193 1194 0
-347 -61 0
-774 360 0
-2364 2366 0
-1497 -264 0
-897 -48 899 0
-1659 1660 0
-391 1818 0
-877 878 0
-2591 180 2593 0
-19 643 0
-1203 287 1204 0
-421 -155 0
-537 -330 0
-2809 2810 0
-1784 1786 0
-2567 2572 0
-215 3104 0
-16 15 0
63 1099 0
-3091 3097 0
-598 599 0
-954 -52 956 0
-2794 2795 0
-1080 1084 0
-1323 1326 0
-2791 2800 0
-2282 -292 0
-1065 1069 0
-3477 257 0
-3088 216 3090 0
-1327 1328 0
-145 2237 0
-1362 324 0
-87 1424 0
13 0
-665 666 0
-542 8 544 0
-3059 215 3061 0
-898 -345 900 0
-3463 256 3464 0
-2462 2463 0
-2161 2162 0
-1469 494 1471 0
-732 733 0
124 1886 0
222 3175 0
-270 269 0
-534 -329 0
-2224 2227 0
-2477 -168 0
-1885 124 1887 0
-820 -427 0
-1092 1100 0
-2344 2347 0
-1513 289 0
-3153 222 3155 0
-285 -147 0
-2529 2530 0
-2745 193 2747 0
-799 800 0
-106 1666 0
-322 321 0
-487 -241 0
-920 375 921 0
-2596 2597 0
93 1502 0
-3148 -385 3149 0
-925 930 0
109 1712 0
-2525 173 2527 0
-1691 1693 0
-3483 3484 0
-1391 1396 0
-987 991 0
-1478 -494 1480 0
-929 932 0
-1683 470 0
-1369 -321 1370 0
-1754 1758 0
-2757 383 2758 0
-1830 419 1832 0
-395 -181 0
-2663 2664 0
-154 2362 0
-2187 -142 2189 0
-2001 2002 0
-66 1162 0
-572 573 0
-3065 3071 0
-645 -464 0
-1614 103 1616 0
-3378 246 3380 0
-1301 1302 0
-3497 3498 0
-2826 -485 2827 0
-2850 2851 0
-2742 -356 0
-2121 304 2122 0
-2068 2069 0
-639 640 0
-1364 1367 0
-717 720 0
-1993 131 1995 0
-2308 -337 2310 0
-1799 392 0
125 1911 0
-109 1744 0
-3218 3219 0
-2193 2195 0
-2542 -174 0
-1923 -289 1924 0
-124 123 0
-2561 178 2563 0
-2236 512 0
-244 243 0
-594 359 0
-3223 3225 0
-64 1113 0
-1964 130 1966 0
-3251 229 3253 0
-3285 3286 0
6 539 0
-2503 2504 0
-2018 2024 0
-598 15 600 0
-3253 230 3255 0
-831 833 0
-2967 449 2969 0
-3032 -513 3034 0
11 590 0
-2321 153 2323 0
-67 1165 0
-716 490 0
-3247 -273 0
-1861 1863 0
-576 12 0
-3058 214 3060 0
-1619 1625 0
-296 295 0
-2650 185 2652 0
-114 1763 0
-711 -442 0
-1603 1606 0
-3337 3338 0
-166 2475 0
-417 -103 0
-1275 465 1277 0
-1685 1688 0
-2394 474 0
-160 2411 0
-2379 -450 0
-171 2518 0
-2224 -480 2225 0
-3456 -439 3458 0
-1266 1268 0
-3462 3464 0
153 2349 0
-1617 403 1619 0
-3404 3405 0
-218 3116 0
-2053 2056 0
-942 52 0
-84 83 0
-2531 482 0
-809 810 0
-3309 -235 3311 0
-129 2003 0
-1275 1276 0
-551 553 0
-1815 -391 1816 0
-485 3243 0
-1981 -335 1983 0
-1659 -105 1661 0
-1458 1461 0
-2425 2426 0
-43 851 0
-551 -373 0
-2410 2411 0
-2859 306 2860 0
-98 97 0
-37 787 0
-1405 1408 0
-218 217 0
-2954 2957 0
-2856 306 2857 0
-2311 -152 2312 0
-2924 -206 2925 0
-80 1319 0
-1710 1711 0
-793 -360 794 0
-685 687 0
-3259 3260 0
-2234 2236 0
-3352 241 3354 0
-2312 2316 0
-747 748 0
-3322 3325 0
-2297 2301 0
-790 -359 791 0
-1149 66 1151 0
-149 2279 0
-1777 1778 0
-3326 3327 0
-646 20 648 0
-3389 3392 0
-2442 2448 0
-3193 -224 0
-2669 2671 0
-453 -105 0
-335 -113 0
-2300 338 2301 0
-183 2644 0
-2716 192 2718 0
-2403 -472 0
4 521 0
-206 2926 0
-2431 2435 0
-1342 -82 0
-1116 -362 1117 0
-2649 184 2651 0
-2297 338 2298 0
-58 57 0
-783 784 0
-2127 -138 2129 0
-408 2647 0
-1094 361 1096 0
-2098 285 0
-63 1110 0
-20 19 0
-1249 1250 0
-1484 94 1486 0
-2585 -294 2586 0
-2798 2799 0
-2152 2156 0
-2574 -177 2576 0
-53 1010 0
-2608 -339 0
-1132 389 1133 0
-1690 1692 0
-2040 -405 2041 0
-607 609 0
-2548 -482 2549 0
-3483 -256 3485 0
139 2119 0
-2399 2400 0
-772 359 774 0
29 712 0
-2384 2385 0
-2783 424 0
-2381 2390 0
-72 71 0
-153 2361 0
-3353 241 3355 0
-2082 471 0
-2631 -181 2633 0
-1179 -479 0
-192 191 0
-3171 3173 0
-917 918 0
-1942 315 1943 0
-2466 2467 0
-1684 1685 0
-1037 1038 0
88 1413 0
-2541 -174 2543 0
-119 1837 0
-2945 397 2946 0
-1965 130 0
240 3352 0
-3157 410 3159 0
209 2992 0
-955 -52 957 0
-1104 1105 0
-210 3008 0
-3070 326 3071 0
-1493 -94 1495 0
-2518 2519 0
-1871 1872 0
-2372 -396 0
-3324 425 3325 0
-3410 -358 0
-2393 473 2394 0
-705 706 0
-2268 291 2270 0
-278 -277 -276 -275 -32 -31 0
-443 -75 0
-2179 144 2181 0
512 0
-3295 -234 3296 0
-1947 -127 1949 0
-3060 215 3062 0
-2784 423 2785 0
-3031 -212 3033 0
-2968 2969 0
-757 758 0
-1857 -120 1859 0
-2710 2712 0
-1239 1243 0
249 3427 0
111 1736 0
-235 3314 0
-3152 221 3154 0
470 2083 0
-48 925 0
-1460 -443 1461 0
-1960 -318 0
-102 1628 0
-669 25 671 0
-2004 -131 2006 0
-843 44 845 0
-3035 3036 0
-3440 -411 3442 0
-2633 -182 0
-2170 -421 0
-1619 404 1621 0
-428 825 0
-2593 2600 0
-2373 2374 0
-2855 2859 0
-362 361 0
-170 2517 0
-148 2276 0
-1736 112 1737 0
87 1392 0
-586 589 0
-2383 160 2385 0
-2722 355 0
-405 -117 0
-3115 -357 0
-2902 2905 0
-2482 -380 2483 0
30 713 0
-1358 322 1360 0
-1478 1482 0
103 1642 0
-1806 -116 1808 0
-3270 3273 0
138 2094 0
-545 374 0
-1068 333 0
-2808 2809 0
-2854 202 2855 0
-1783 1785 0
-2958 -397 0
-496 495 0
-175 2573 0
-3274 3275 0
-3032 3037 0
-1798 392 1800 0
-617 619 0
-1801 118 1802 0
-1865 1867 0
-1141 1144 0
-1040 -494 0
-679 680 0
-1431 -416 0
-1361 323 0
210 2993 0
-525 329 0
-2107 -285 0
-1451 -90 1453 0
-479 -77 0
-684 686 0
-2611 -340 0
-2233 2235 0
55 1025 0
-2175 2176 0
-1240 -313 0
-1723 -282 0
-731 732 0
-566 570 0
-2636 -367 2637 0
-2760 -193 2762 0
-813 814 0
-3310 3311 0
-3009 3010 0
-2968 449 2970 0
-2141 -305 2142 0
-1580 1581 0
-798 799 0
-1258 -75 1260 0
-786 -359 0
-2887 2892 0
-336 335 0
235 3305 0
-1400 1404 0
-2367 2369 0
-2651 185 2653 0
-2610 -339 2611 0
-2167 2171 0
-1181 1182 0
-3377 3378 0
-2730 2731 0
-3147 -384 3148 0
-638 643 0
-2376 -447 0
-194 2791 0
-703 -28 705 0
-985 986 0
-2492 2495 0
-2292 2297 0
491 1029 0
-3227 -462 0
-2015 2016 0
-1618 403 1620 0
-1604 -377 1605 0
-1068 1072 0
-86 1398 0
-470 469 0
-2696 -476 0
-2448 -317 2449 0
-2544 2547 0
-2864 2865 0
79 1327 0
-1115 1118 0
-1839 1841 0
-1207 -71 1209 0
-1395 391 1396 0
-1420 1421 0
-1119 1120 0
-1699 508 0
-2979 -209 2981 0
-1498 1501 0
-1013 1021 0
-609 -387 0
-2611 2614 0
-1240 1244 0
-1182 1185 0
-543 373 545 0
-2149 2150 0
271 2557 0
-2916 2917 0
74 1225 0
-3052 3056 0
-258 257 0
-365 2346 0
-738 34 0
-345 -35 0
-994 -444 0
-2517 2518 0
-2683 475 2684 0
-2094 2099 0
110 1713 0
-2337 2341 0
-772 773 0
-1632 1635 0
-1794 1802 0
-310 309 0
-69 1189 0
-2561 2569 0
-430 429 0
-3470 -256 3472 0
-1074 1081 0
-1155 1156 0
-3351 3352 0
-113 1762 0
-292 2285 0
-760 -35 0
-2226 -480 2227 0
-29 709 0
-2961 -398 0
-1693 -469 0
261 1185 0
-3471 3472 0
-839 840 0
-431 -89 0
214 3059 0
241 242 501 502 0
-2149 419 0
-2709 2711 0
-792 -361 0
-2651 2652 0
-3233 3236 0
-70 1206 0
-1711 -510 0
-15 620 0
-167 2478 0
-133 2062 0
-1809 1813 0
-1347 1349 0
-2576 2580 0
-1095 361 1097 0
-3485 3486 0
-394 2371 0
-3002 476 3003 0
-1360 323 1362 0
-1399 -87 1401 0
-926 -49 928 0
-39 798 0
90 1437 0
-2575 -177 2577 0
-2901 2904 0
-359 793 0
-1657 1658 0
-3125 3132 0
-52 980 0
-3206 3207 0
514 0
-914 921 0
-112 111 0
-1234 1239 0
-393 -131 0
-789 -360 0
-1989 -337 1990 0
-232 231 0
-780 362 0
-1052 -60 0
-3117 -356 3118 0
54 975 0
267 2251 0
-819 821 0
-761 762 0
-1206 -71 1208 0
-3156 409 3158 0
-2311 2315 0
-2237 -146 2239 0
-1606 1609 0
-1143 -387 1144 0
-1030 493 0
-284 283 0
-3230 485 3232 0
-698 414 0
-2558 2559 0
-1565 334 0
-3140 3143 0
-2567 295 0
-2534 481 2535 0
-1713 281 1715 0
-1675 108 1677 0
-3445 3446 0
-3125 383 3127 0
-2458 -351 0
-1219 311 0
-1570 -98 1572 0
-467 -91 0
-1978 1979 0
-349 -99 0
-1767 114 1769 0
-331 -45 0
-2745 2746 0
-744 311 0
-108 1690 0
-1963 1964 0
-182 2643 0
-1858 -121 1860 0
-3459 3460 0
-2146 142 2148 0
-3352 3357 0
-2812 2813 0
-2290 152 2292 0
-882 345 884 0
-2166 2170 0
-3339 240 3341 0
-1083 1087 0
-560 10 561 0
-1272 78 1274 0
-2101 286 0
-2413 2414 0
-2657 436 2659 0
-22 659 0
-1631 1632 0
-454 2197 0
-3180 3181 0
-2097 2098 0
-86 85 0
-61 1081 0
-206 205 0
-648 503 0
-1698 1699 0
-1051 1052 0
-1382 86 1384 0
-2786 425 0
-3247 3248 0
-2762 2768 0
-3291 -232 3293 0
-735 736 0
-1398 -87 1400 0
-1460 1463 0
-172 2539 0
-743 310 744 0
-84 1376 0
-1765 1766 0
-740 742 0
-1885 1886 0
-32 748 0
-3294 -234 0
-3182 438 0
-1229 -72 1231 0
140 2144 0
-429 1169 0
-2942 208 2943 0
-131 2031 0
-2508 -422 2510 0
-2719 2720 0
-3444 3447 0
-990 994 0
-3299 234 3301 0
-2076 -436 0
-524 6 0
-2782 2785 0
-2019 2020 0
-559 399 0
-2131 -140 2133 0
-695 28 696 0
-3020 -477 3021 0
-28 708 0
-2077 136 2079 0
-2606 2610 0
-1117 -363 1118 0
-1033 -56 1035 0
-370 2930 0
-152 2335 0
218 3100 0
-2407 -472 2408 0
-3154 3155 0
-3474 -462 0
-2838 -271 2840 0
-2903 -342 2904 0
-538 6 540 0
-913 50 915 0
-107 1704 0
-2048 135 2050 0
118 1822 0
-180 179 0
-92 1460 0
-2260 -268 2261 0
-1429 1431 0
-1672 1673 0
-1025 1026 0
334 1568 0
-2154 2158 0
-2196 2198 0
-2439 2440 0
-2289 151 2291 0
-787 790 0
-254 3468 0
-1030 1032 0
-2983 2986 0
-1450 446 0
-2842 -273 0
-2822 2823 0
-2521 2522 0
-3104 -216 3106 0
-3346 3348 0
-1295 505 0
12 591 0
-1859 1860 0
-1077 1078 0
-2584 2587 0
43 843 0
-295 -199 0
-710 -441 0
-1394 390 1395 0
-287 -79 0
-1922 1925 0
-1847 121 1849 0
-1518 -94 1520 0
-1864 1866 0
-1159 1160 0
-629 19 631 0
-2207 480 0
-2573 2574 0
-2090 -471 2092 0
-2693 2694 0
-2378 -449 0
-192 2760 0
-980 987 0
-1164 1166 0
-409 -207 0
-3438 -252 3440 0
-528 330 0
-3480 3482 0
-1715 282 1717 0
-755 -310 757 0
-984 989 0
-1993 1994 0
-374 689 0
-535 -6 536 0
-1211 1212 0
-3300 3305 0
164 2435 0
-2056 2059 0
-1743 304 0
-1464 -445 1465 0
-120 1858 0
-224 3198 0
-2361 2362 0
-350 349 0
-1003 464 0
-3128 3129 0
-2624 367 2626 0
-1580 -335 0
-2833 273 0
-2366 2368 0
-691 26 693 0
-154 153 0
-1661 1662 0
-127 1976 0
-879 880 0
-1461 1464 0
-1067 332 1068 0
-1646 1647 0
-3473 -461 0
-999 1000 0
-193 2790 0
-1248 76 1250 0
-2065 -136 2067 0
-2248 2252 0
-2491 2494 0
-82 1345 0
-299 1347 0
-449 -169 0
-1786 1788 0
-3258 3261 0
-271 2843 0
-2957 2960 0
-2796 2797 0
-3443 252 3445 0
-1688 -108 1689 0
-2556 271 0
-3390 -246 3391 0
-1067 1071 0
-85 1397 0
-1833 1834 0
-813 429 0
-1591 1596 0
-105 1684 0
-3039 -516 0
-927 -50 929 0
-667 668 0
-828 503 830 0
-1838 1840 0
-121 1861 0
-3407 3410 0
-745 311 746 0
-1658 1663 0
-943 52 944 0
-2096 284 2098 0
-2578 -293 0
-351 2459 0
-534 537 0
-3190 -223 3192 0
-160 2404 0
-3429 251 0
-499 2709 0
-3222 -459 3223 0
108 1697 0
-2750 2754 0
-1314 281 0
-1321 1325 0
-122 1878 0
-857 -261 0
-981 -53 983 0
-1393 389 1394 0
-723 -489 725 0
-801 802 0
-1164 -68 0
-1109 -361 0
-1144 -388 1145 0
-324 323 0
-329 -21 0
-128 1955 0
-1350 -302 0
-974 443 0
-2685 -186 2687 0
-2614 -341 0
-2845 -274 0
-2669 -436 2670 0
-3362 -241 3364 0
-1693 1695 0
-853 854 0
-3332 -238 3333 0
-989 993 0
-1811 -391 0
-1061 62 1063 0
359 595 0
-607 -16 0
-2278 -150 0
-2003 2004 0
-415 -75 0
-562 400 0
-2533 174 2534 0
256 3476 0
-458 457 0
-1595 379 1596 0
-3275 -231 3277 0
-380 2484 0
-2070 2071 0
-641 642 0
-1097 362 0
-2863 -201 2865 0
-2837 2838 0
-1437 91 1439 0
-3262 -307 0
-190 2729 0
-1839 -417 1840 0
-3223 -460 0
66 1150 0
-2195 2197 0
-927 931 0
-2881 2889 0
-2881 204 2883 0
-708 709 0
-613 17 615 0
-51 979 0
-1475 1476 0
-3284 233 3286 0
223 3204 0
-693 694 0
-242 3370 0
33 34 35 36 329 330 331 332 0
-1489 265 0
37 38 39 40 399 400 401 402 0
-2786 2789 0
-2004 2007 0
-1542 1543 0
-3091 218 3093 0
-1808 -117 1810 0
-760 761 0
-3355 242 0
-2309 2310 0
-2997 475 0
-298 297 0
-1605 1608 0
-418 417 0
-3339 3340 0
-2361 -154 2363 0
-2489 170 2491 0
-191 2759 0
-827 828 0
-2302 340 0
-2376 2377 0
-632 20 0
-2234 511 0
-3281 -343 3282 0
-3464 3466 0
-3406 3407 0
-968 973 0
-2759 2760 0
-1468 493 1470 0
-2274 294 0
231 3283 0
-3143 -384 0
-1874 497 1876 0
-814 430 0
-2418 286 0
209 2972 0
-2443 2444 0
-1679 468 1681 0
198 2813 0
-929 -375 0
-432 431 0
-2569 293 2570 0
93 1484 0
-1277 1278 0
-3473 3474 0
-2559 177 2561 0
-531 -5 533 0
-1617 1624 0
-399 -25 0
-2326 2332 0
-239 3347 0
-265 1897 0
-1382 1383 0
-1621 1626 0
-493 1481 0
-1818 -392 1819 0
-1977 -129 1979 0
-1644 105 1646 0
-2893 2894 0
-567 -10 0
-1144 1147 0
-65 1140 0
-2111 2112 0
-349 1381 0
-2045 -407 2046 0
-1346 -300 0
-2878 2879 0
-1938 316 1940 0
-220 219 0
-627 -428 0
-2038 -406 0
-584 -12 586 0
-2049 135 2051 0
-2812 198 2814 0
-113 1779 0
-3140 -383 0
-239 3360 0
-325 -127 0
-2555 270 0
-2756 382 2757 0
-687 689 0
159 160 497 498 499 500 0
-749 750 0
-3129 385 0
-1293 78 1295 0
-2114 2120 0
-577 453 0
-1814 -392 0
128 1962 0
-272 271 0
-2595 340 2597 0
-3022 212 3024 0
-392 391 0
-1190 -261 1192 0
-1494 -263 1496 0
-2946 398 0
-3283 232 3285 0
263 1490 0
-300 0
-816 -41 818 0
-2993 211 2995 0
-3195 3198 0
-2353 156 2355 0
103 1622 0
-3162 -220 3164 0
73 1221 0
-3261 -230 3262 0
-3260 -230 0
-2560 177 2562 0
-2433 2437 0
34 741 0
-406 405 0
-2495 2498 0
-756 -311 758 0
-3320 3324 0
-2033 2034 0
-3 529 0
-1251 1252 0
-988 -441 989 0
215 3088 0
-1314 1317 0
-609 611 0
-2664 -186 0
245 3381 0
-3387 3391 0
-60 1055 0
-2547 2550 0
-2085 2086 0
-1222 311 1223 0
-74 73 0
-656 657 0
-54 991 0
-2852 2853 0
-194 193 0
-1919 -126 1921 0
229 3265 0
-1680 468 1682 0
-725 -490 0
-1908 290 1910 0
-834 506 0
-1686 1687 0
-1039 1040 0
165 2462 0
127 1941 0
-2267 150 2269 0
-2993 2998 0
-1806 1807 0
50 940 0
-2702 501 2704 0
-723 724 0
-1249 76 1251 0
-657 260 0
-2997 3000 0
202 2879 0
-939 50 941 0
-786 789 0
-246 245 0
-1106 1107 0
-3146 -385 0
-2520 2521 0
-1873 1874 0
-2238 -509 2240 0
-22 663 0
-848 850 0
-1091 1092 0
-977 443 978 0
-194 2771 0
-647 503 649 0
-3365 3368 0
-1127 388 0
-1635 1638 0
-634 20 635 0
-1820 -394 0
-2080 470 0
-2402 2405 0
-241 3369 0
-3369 3370 0
-2160 2167 0
-207 2953 0
-1345 -299 1346 0
-2373 -156 0
-2707 2708 0
-2858 305 2859 0
-1529 -289 0
-86 1378 0
-380 379 0
161 2423 0
-2002 366 0
-3479 3481 0
-1710 -509 0
-2424 163 2426 0
-3351 240 3353 0
-2532 2537 0
-1338 302 0
-680 -25 682 0
-1643 1652 0
-124 1917 0
-1585 1593 0
-831 504 832 0
-2992 210 2994 0
-1408 1411 0
-2375 2376 0
-1817 -393 0
-630 631 0
-2036 -405 2038 0
244 3373 0
-2255 -267 2257 0
49 919 0
-1660 -106 1662 0
-168 167 0
-2663 -185 0
-2417 285 0
-2904 2907 0
-893 894 0
-2167 -142 2168 0
-2836 274 0
-575 12 577 0
-3239 -485 3241 0
-495 -107 0
-1933 127 1935 0
-1877 -122 1879 0
-1022 -464 1023 0
-1600 1604 0
-802 -402 0
3 520 0
-2679 473 2680 0
-2509 2510 0
-1785 1787 0
68 1174 0
-1302 -505 1304 0
-3276 3277 0
-2067 2074 0
-1847 1848 0
193 2751 0
-3234 486 3235 0
-1779 -114 1781 0
-477 -225 0
-1143 1146 0
-3096 3100 0
-1649 432 1651 0
-2071 2076 0
-2314 2318 0
-1002 463 1003 0
-2634 2636 0
-2168 -419 2169 0
-2369 -394 2370 0
-885 889 0
-2434 2438 0
-2453 -319 2454 0
-1037 -492 1039 0
-1438 91 1440 0
-3343 3344 0
-1136 -65 1138 0
-4 530 0
-2880 203 2882 0
-3452 -253 3454 0
-397 -219 0
-733 734 0
-3285 233 3287 0
-2713 190 2715 0
-1199 1200 0
-485 -211 0
-2944 396 2945 0
-2305 -151 2307 0
-2193 -453 2194 0
-807 42 809 0
-1582 1583 0
59 1057 0
-800 801 0
-2349 2350 0
-3092 218 3094 0
-1317 282 0
-2586 -295 2587 0
-3194 3197 0
-1837 -120 1838 0
-2169 2173 0
-2262 -270 0
-142 141 0
-3014 3020 0
-962 -416 0
-2707 -499 0
-1469 1473 0
-2941 2946 0
-3464 461 0
-835 -42 837 0
-1454 1458 0
-1936 1943 0
-914 375 916 0
-3181 438 3183 0
-2196 -455 0
-147 2254 0
-1216 1222 0
-2971 451 0
-1821 1822 0
-2546 2549 0
279 1315 0
-3313 3316 0
-3453 -253 3455 0
-1590 378 0
-2308 2313 0
211 3022 0
-1121 1122 0
-2259 -269 0
-3317 3318 0
-574 11 576 0
-2428 2433 0
-3400 357 3401 0
-1978 -129 1980 0
-2613 2616 0
-2440 -163 2442 0
-1427 1429 0
-3380 3383 0
-2733 2736 0
-1951 1954 0
-1937 315 1939 0
-1816 -392 1817 0
-2918 2919 0
75 1269 0
-707 708 0
-2256 2257 0
-195 2805 0
-1357 321 1359 0
-1173 1174 0
-143 2214 0
-847 849 0
-1075 -61 1077 0
117 1801 0
-624 -18 626 0
-1967 130 1968 0
-2785 2788 0
-2157 421 2158 0
-182 2636 0
-774 775 0
-2080 2082 0
-2323 2324 0
-1492 266 0
-312 311 0
-2079 469 0
-881 48 883 0
-3132 384 3133 0
-3090 3091 0
-1797 391 1799 0
-1561 1563 0
-621 -17 623 0
-2581 -294 0
-3426 -386 0
-724 -490 726 0
-252 3452 0
-905 -345 906 0
-841 842 0
136 2056 0
-2148 2153 0
-961 962 0
-2116 303 2118 0
-902 -345 903 0
-1733 301 1735 0
-117 1812 0
159 2390 0
121 1869 0
-659 -259 661 0
-1991 1992 0
-410 3172 0
-403 -87 0
-2457 2458 0
-969 441 0
-446 445 0
-2215 2220 0
-2366 -393 0
-2335 2340 0
-2841 -272 0
-2456 -165 0
320 0
-1572 -99 1574 0
-1776 351 1778 0
-3495 -258 3497 0
-387 1146 0
69 1197 0
-1509 288 0
-1095 1096 0
-2726 355 2727 0
-3107 3113 0
52 964 0
-84 1369 0
-1760 -112 0
-2261 -269 2262 0
-2789 426 0
260 849 0
-1009 466 0
-1629 -103 1631 0
-2754 383 0
-1925 1928 0
225 3228 0
-348 1380 0
-3416 3418 0
-2377 -448 0
-681 682 0
-363 2011 0
-3416 385 0
-821 823 0
-2050 2054 0
-763 764 0
-517 2 0
-622 -17 624 0
-1535 97 1537 0
-521 526 0
-2485 -382 0
-2693 -474 2695 0
-286 285 0
-453 -121 0
-868 869 0
-2803 -425 2804 0
-3142 3145 0
-2239 -509 2241 0
-580 454 0
-2690 -473 2692 0
-1597 1598 0
-815 816 0
-1476 -493 1478 0
-122 0
-1557 -316 0
-3054 -297 0
-458 2810 0
-771 778 0
-1010 -54 1012 0
-1900 -268 0
-2967 2974 0
-1780 1783 0
-617 427 0
-2747 2748 0
-385 -233 0
-1965 1966 0
-1561 100 0
-2587 -296 0
-139 2159 0
-2732 2733 0
-2971 2976 0
-420 419 0
-2494 2497 0
-3461 3462 0
-2814 2815 0
-2614 2617 0
-2688 -188 2690 0
-1530 -287 1531 0
-2981 -210 0
-2415 162 2417 0
-2037 -405 0
-608 610 0
-245 3402 0
-196 2806 0
-2924 2926 0
-2866 2867 0
-1841 1843 0
-208 207 0
-1919 1923 0
-932 -376 0
217 3096 0
-2964 209 2966 0
-2375 -158 0
-3240 -486 3242 0
-1927 -291 0
-1775 350 1777 0
-737 738 0
-2506 2513 0
-693 27 0
95 1534 0
-1562 1564 0
-1261 1263 0
-1504 1505 0
-1023 -465 1024 0
-2982 -449 0
-3053 3054 0
-557 561 0
-2753 2757 0
-260 259 0
-742 744 0
-1429 -415 0
211 2998 0
-1648 431 1650 0
-3376 245 3378 0
-395 2959 0
-1628 -103 1630 0
-1115 -363 0
-21 662 0
-3120 3121 0
-1620 404 0
-483 -187 0
-1152 68 1154 0
-2338 2339 0
-602 387 0
-2511 -170 2512 0
135 2077 0
-2144 141 2146 0
-1634 1637 0
-3335 238 3337 0
-430 0
-2401 2404 0
-2721 2722 0
-1020 -56 1021 0
-1939 1940 0
-351 -139 0
-982 -54 984 0
-934 937 0
-2541 2545 0
-394 393 0
-2765 -381 0
-606 -15 0
-514 513 0
-1297 1299 0
-2943 395 2944 0
-2606 -180 2608 0
-1521 1527 0
-2213 482 0
-1891 267 0
-2341 -365 2342 0
-1337 301 0
-123 1916 0
-3156 3157 0
-891 347 892 0
-1543 315 1545 0
-2391 471 2392 0
-989 -442 990 0
163 2431 0
-224 3217 0
-453 -53 0
-741 309 742 0
-2565 294 2567 0
-1372 -323 0
-1455 -92 0
105 1672 0
-182 181 0
-1884 -498 0
-2798 -424 0
-1615 104 1617 0
-1489 1492 0
-1431 1433 0
-699 -26 701 0
-1955 1958 0
-2441 2442 0
-1881 -496 1882 0
-391 -101 0
-776 38 777 0
-3043 3047 0
-2985 2988 0
-915 375 917 0
-1225 311 1226 0
-3461 255 0
-234 233 0
-3348 3350 0
-2863 2870 0
-938 -378 0
-1195 -263 0
-2014 -366 0
-1079 1080 0
36 767 0
-1511 287 1512 0
-2628 2629 0
-316 315 0
-3094 3095 0
-1439 1447 0
-1866 1868 0
-3095 3099 0
-2448 2452 0
513 3028 0
-3349 -451 3350 0
-3415 3417 0
-875 -321 876 0
-2633 2635 0
-200 2863 0
-1790 -352 0
-1608 1611 0
-1824 120 1826 0
-2575 2576 0
-2883 341 2885 0
309 0
-1443 1449 0
100 1583 0
-3266 231 3268 0
-2695 2696 0
-2935 2943 0
-1349 -301 1350 0
-142 2171 0
-3288 371 3290 0
-368 367 0
-81 1363 0
-579 453 580 0
-909 48 911 0
-488 487 0
-1995 1996 0
-2422 -286 0
-1213 1214 0
-1244 -314 0
-74 1258 0
-3149 -386 0
-3450 440 0
-2835 273 2836 0
171 2523 0
-3093 355 3095 0
-1980 1981 0
-246 3403 0
-3487 -258 3489 0
-864 321 0
-2058 2061 0
-935 -377 0
254 3460 0
-325 -189 0
-565 -9 567 0
-1678 467 1680 0
-1096 1102 0
-2047 2048 0
-1894 -265 1896 0
223 3184 0
-2950 2954 0
-156 155 0
-3328 -237 3330 0
-201 2893 0
-1631 -104 0
-1648 1649 0
-2230 2233 0
-402 1267 0
147 2263 0
-743 745 0
-215 3079 0
-1402 -389 0
-2159 -140 2161 0
-672 373 674 0
-347 -73 0
-1868 -448 0
-2204 479 2206 0
475 3004 0
-2671 -437 2672 0
-461 -239 0
-2414 -500 0
-1835 1836 0
-3080 -325 3081 0
-2970 450 0
-57 1049 0
99 1562 0
-290 289 0
-1840 1842 0
-120 0
-935 938 0
-2200 2209 0
196 2784 0
-1887 1888 0
1 0
203 2908 0
-353 2461 0
-3497 -515 0
-2489 2493 0
-2169 -420 2170 0
-342 341 0
134 2027 0
60 1058 0
-1002 1005 0
-3322 425 0
-3340 451 3342 0
-2475 -167 2477 0
176 2559 0
-3255 307 0
-2421 -285 0
-1415 90 1417 0
-1246 75 1248 0
-180 2631 0
-1049 -58 1051 0
-3104 3105 0
172 2524 0
-1064 332 0
-2021 2022 0
-2433 318 2434 0
-70 1190 0
-323 1764 0
-2306 -152 2308 0
-1755 -303 0
-130 129 0
-855 856 0
-1170 -431 0
-1794 118 1796 0
-2951 -208 0
-3187 439 3188 0
-2351 155 2353 0
-894 901 0
-1738 302 1739 0
-3017 -212 3018 0
-2744 2751 0
-2928 2930 0
-1810 -118 0
-3462 256 0
-784 -38 786 0
-1708 -508 1710 0
-1256 404 0
-736 33 738 0
166 2463 0
-1909 290 0
152 2299 0
-1420 416 1422 0
-2729 -191 2731 0
92 1467 0
-1330 82 1332 0
-3296 3298 0
-1705 -507 1707 0
-3206 225 3208 0
-217 3112 0
-16 621 0
-1904 126 1906 0
42 828 0
-2094 283 2096 0
-395 -193 0
-134 2063 0
-1027 1028 0
-1509 1513 0
269 0
-3431 252 3432 0
-862 866 0
-2712 -502 0
-1946 -126 1948 0
-2839 2840 0
-789 792 0
-533 -6 0
-1871 495 1873 0
97 1558 0
-2654 435 2656 0
-3183 3188 0
-186 2667 0
-2364 -156 0
-2643 2644 0
-2411 -497 0
-1550 -98 1551 0
-2192 -453 0
511 0
-1881 1883 0
-1477 1478 0
-3430 3432 0
-2706 2709 0
-999 56 0
-2405 2408 0
-317 -139 0
-2874 -305 2875 0
-1161 1162 0
-3008 3017 0
-379 -115 0
-536 -329 537 0
-3346 -240 0
-275 -21 0
-577 580 0
-1544 1545 0
-1263 -401 1264 0
-762 763 0
-2660 438 0
-41 819 0
-2851 2856 0
-1059 61 1061 0
-1286 1288 0
-300 299 0
-1405 -390 0
-199 2862 0
-1607 1610 0
-1122 1130 0
-616 18 617 0
-3171 -411 0
122 1870 0
-78 1287 0
-104 103 0
-1126 1132 0
11 578 0
83 84 85 86 347 348 349 350 0
-829 830 0
-2378 2379 0
-2718 2725 0
-1716 1717 0
-3107 -218 3109 0
-457 2809 0
-2334 -152 2336 0
-2747 194 2749 0
-17 637 0
-968 441 970 0
-1192 -262 1194 0
-2510 -423 0
-846 260 0
-2445 2446 0
-1375 -84 0
-983 -54 985 0
-1016 1017 0
-1560 99 0
-3212 3213 0
-1521 -96 1523 0
-867 322 0
-1855 447 0
-479 -91 0
107 1696 0
-2830 271 2832 0
190 0
-1027 491 0
-1788 1790 0
-1851 445 1853 0
-2340 -154 2341 0
-2687 -187 2689 0
-674 374 676 0
-2350 155 2352 0
-993 -443 994 0
-903 907 0
-3099 3103 0
-3197 -438 0
254 3449 0
-281 -93 0
-1756 -301 1757 0
-2158 422 0
-3082 -325 3083 0
-887 346 888 0
-3089 217 3091 0
-2637 2639 0
-2880 2881 0
-1419 416 1421 0
-557 10 559 0
-1451 1452 0
-1250 401 1252 0
-966 972 0
-3228 226 3230 0
-2779 196 0
-2487 169 2489 0
-1867 -447 1868 0
-1737 1741 0
-751 752 0
-1261 -76 1262 0
-2947 2948 0
-3331 -425 0
-1518 1519 0
-1780 -115 1782 0
-629 634 0
163 164 165 166 351 352 353 354 0
-377 1609 0
-2767 2771 0
-274 273 0
-2254 -148 2256 0
-2105 2109 0
-2795 -423 2797 0
-964 53 966 0
-2670 -437 0
-513 3037 0
-2264 149 2266 0
-467 1692 0
-777 359 778 0
-2837 -200 2839 0
-3197 3200 0
-3265 230 3267 0
-943 945 0
-1425 -89 1427 0
-961 -415 0
-1697 507 1699 0
-1669 -432 1670 0
-2481 -380 0
65 1149 0
-2240 -510 2242 0
-2431 164 2432 0
-3267 231 3269 0
-1601 -102 0
-870 871 0
-132 2032 0
-2477 2479 0
-2419 2420 0
-408 407 0
-2342 -366 0
-44 869 0
-2834 272 2835 0
-2013 -365 2014 0
-1770 116 1772 0
167 2486 0
-107 1688 0
-3412 249 3414 0
-591 592 0
-3327 3332 0
-2936 208 2938 0
-3090 217 3092 0
-2568 178 2569 0
-1057 1058 0
-3079 -216 3080 0
-3253 3254 0
-1896 -266 0
-3331 3334 0
-40 816 0
-3089 3096 0
-2549 2552 0
-94 1519 0
212 3023 0
-2470 380 2472 0
-2087 2088 0
-658 659 0
-3141 -220 3142 0
-3394 3399 0
-878 47 880 0
3 0
-2630 -180 2632 0
-882 887 0
-590 12 0
-3409 -357 3410 0
-1969 1972 0
-2736 2739 0
-655 259 657 0
-1147 -389 1148 0
-725 726 0
-1954 1957 0
188 2679 0
-164 2456 0
-673 373 675 0
-1189 -70 1191 0
-2799 2804 0
-788 791 0
-248 247 0
-803 40 805 0
-202 2874 0
-1312 1316 0
-2279 2281 0
-24 665 0
-1914 291 1915 0
-797 -39 0
-886 345 887 0
-1093 1094 0
-2516 -170 0
-2642 2643 0
-599 16 601 0
-3108 3109 0
-572 10 574 0
-1300 508 0
-1283 -77 0
-2675 187 0
-1406 -389 1407 0
-652 -503 0
-1977 1986 0
-2404 2407 0
-3217 -225 3219 0
-1904 1912 0
-2173 -421 2174 0
-382 381 0
-2659 437 0
-722 727 0
-502 501 0
-1285 1287 0
-3200 -439 0
190 2714 0
-1323 -281 0
-1105 1110 0
-565 566 0
-73 1257 0
-2761 2762 0
-2455 -164 0
-1485 263 1487 0
-2263 148 2265 0
-3363 3367 0
-3347 -240 3348 0
-3063 3070 0
249 3415 0
-1803 392 1804 0
-449 -185 0
-2773 -383 2774 0
-3408 -248 3409 0
-632 633 0
-1379 -348 0
-2828 2829 0
-2181 2182 0
-170 169 0
513 0
-1399 1400 0
-2307 -152 2309 0
-3435 -250 3437 0
-1895 -265 0
-313 1554 0
-2674 187 2676 0
-2703 501 0
-1187 263 1188 0
-2526 2534 0
-699 700 0
-2895 2896 0
-872 -46 0
2 518 0
-1466 1467 0
-26 685 0
-2108 -284 2109 0
-2935 208 2937 0
-3015 3016 0
-2235 511 2236 0
-2326 366 2328 0
-103 1633 0
-222 221 0
-1331 82 1333 0
-2323 154 2325 0
-1849 1850 0
-700 -27 702 0
-1706 -507 1708 0
-3078 3081 0
-824 826 0
-1368 -321 0
-766 767 0
-2891 343 2892 0
-877 46 879 0
-1475 -92 1477 0
-1880 -496 0
-304 303 0
-1048 300 0
-1103 364 0
141 2151 0
-887 891 0
-821 -427 822 0
58 0
-995 54 997 0
-1086 -332 1087 0
-796 -38 0
-1916 1917 0
-3145 3148 0
-1134 1135 0
-3053 -296 0
-1901 1902 0
473 2681 0
-1736 1740 0
-1597 -100 1599 0
-356 355 0
-3159 411 3161 0
-2010 -364 0
-3455 -254 3457 0
-1663 1666 0
-352 2460 0
-476 475 0
-205 2924 0
-1282 -77 1284 0
-1725 1727 0
-2450 2454 0
-3275 3280 0
-1623 403 1624 0
-2442 -164 2444 0
-684 -373 0
-2849 202 2851 0
-2888 204 2889 0
-990 -443 0
-104 1636 0
-3003 477 0
-2991 -452 0
-3325 426 0
-3279 3282 0
-2821 -483 2823 0
-951 -50 953 0
-2497 2500 0
-3135 -218 3137 0
-785 -38 0
-2035 2036 0
-232 3292 0
-606 607 0
-933 -375 934 0
-144 143 0
-2937 395 2939 0
-1173 68 1175 0
-1110 -64 1111 0
-2998 212 2999 0
-2627 369 2629 0
-2413 -499 0
-3055 -296 3056 0
-719 491 720 0
-3489 -487 0
-2927 2929 0
-673 674 0
-1546 -96 1548 0
-3108 -218 3110 0
-1210 -287 1212 0
-907 -347 908 0
-3329 -238 3331 0
-736 739 0
-196 195 0
-884 346 0
7 554 0
96 1535 0
-2529 481 2531 0
-279 -69 0
-2774 -384 0
142 2176 0
-1789 -351 1790 0
-1823 1824 0
-2423 162 2425 0
-1041 1042 0
-2590 2591 0
-2289 2290 0
-278 277 0
-604 -14 606 0
-156 2374 0
-3319 3320 0
-1176 480 0
-1326 -282 0
-675 374 677 0
-1108 1109 0
-2657 2658 0
-1875 1876 0
-2164 -419 2166 0
-184 2662 0
-1953 1956 0
275 732 0
-1111 -361 1112 0
-1056 -300 0
-1290 -467 0
-330 329 0
-249 3435 0
-208 2978 0
-1637 1640 0
-1251 401 1253 0
-2807 -198 0
-847 260 848 0
-2860 307 2861 0
-1175 1176 0
-2890 342 2891 0
-2499 423 2500 0
-874 -46 875 0
-87 1403 0
-1295 1296 0
-849 261 850 0
-53 987 0
-3491 3492 0
129 1967 0
91 1446 0
-2082 2084 0
-1593 377 1594 0
-291 2283 0
-1308 -508 0
-2325 2326 0
-3311 3315 0
-1959 -317 1960 0
-2705 -188 2707 0
309 743 0
-1100 361 1101 0
-2191 -144 2192 0
-243 3384 0
25 691 0
-118 117 0
-704 -413 706 0
-1956 -316 1957 0
-3312 -236 0
-76 1282 0
-1425 1428 0
-3041 295 3043 0
-3378 3382 0
-1367 1369 0
-963 964 0
-1545 316 0
-2846 200 2848 0
-2347 -367 2348 0
-2020 405 2022 0
-2921 2924 0
-2032 2039 0
-1719 284 0
-2241 -510 2243 0
-2459 2460 0
-2259 2262 0
-1787 -350 1788 0
-845 259 0
-2301 339 2302 0
-1797 1798 0
-2140 -304 2141 0
-383 -205 0
-714 715 0
-88 1406 0
-1257 -74 1259 0
-2564 2565 0
-2263 2264 0
-792 795 0
-252 251 0
-1559 1562 0
-2211 480 2212 0
507 1700 0
78 1294 0
-1097 1098 0
-1154 429 1156 0
-15 608 0
-3293 3294 0
-718 490 719 0
489 0
-2102 -138 2104 0
-2146 2152 0
-3113 3117 0
-2389 2394 0
-553 -374 0
-3356 3359 0
-1927 1930 0
-3468 -255 3470 0
-902 906 0
-3476 3479 0
-844 847 0
-879 47 881 0
-2522 -458 0
-2636 2638 0
-174 2547 0
-2665 -186 2666 0
-1065 62 1066 0
-59 1073 0
-1747 1753 0
-1931 1932 0
130 1992 0
-1149 1150 0
-2492 170 2493 0
-3238 3243 0
-1712 110 1714 0
-1269 1270 0
-2398 2402 0
-1751 1755 0
-2046 -408 0
-1861 -122 1862 0
-3154 222 3156 0
-1831 419 0
-2823 2825 0
-1204 288 0
-3066 3067 0
-55 1020 0
-2875 -306 2876 0
-2765 2766 0
-1267 -403 1268 0
-2119 2123 0
-2667 -435 2668 0
-2151 142 2152 0
-2088 -470 2090 0
39 803 0
-92 91 0
-1539 313 1541 0
-2216 -145 2218 0
-2828 200 2830 0
-817 818 0
-1407 -390 1408 0
-448 2378 0
-1772 349 1774 0
-55 1033 0
-1724 1726 0
-942 944 0
148 2264 0
-2246 267 2248 0
-1387 389 1389 0
-1771 1772 0
-1408 -391 0
-195 2800 0
-2793 2801 0
-2939 396 2941 0
-357 -231 0
-2496 2499 0
-471 2407 0
-2335 -153 2337 0
-226 225 0
-3111 -356 0
-3064 325 3066 0
-3267 3268 0
-1486 263 1488 0
-1896 1898 0
-2917 371 2919 0
-250 3436 0
-3008 -211 3010 0
-2387 472 2389 0
-198 2808 0
-2868 2869 0
155 156 157 158 447 448 449 450 0
-2965 2973 0
-2781 196 2782 0
-1905 1906 0
-1123 1124 0
-1106 -63 1108 0
-1968 1971 0
-2210 479 2211 0
-3051 -295 3053 0
-1263 1265 0
-1506 1507 0
-2521 -457 0
-2735 2738 0
-1367 -84 1368 0
-3213 461 3215 0
-2677 2679 0
-2273 2274 0
-262 261 0
-3040 3041 0
-3142 -383 3143 0
-3130 220 3131 0
-23 664 0
-3122 3123 0
-2725 354 2726 0
-911 912 0
-2464 167 2466 0
-1636 1639 0
-3488 -487 3490 0
-14 605 0
-2590 179 2592 0
-2403 2406 0
-1381 -350 0
-1849 122 1851 0
-3116 -355 3117 0
-1398 1403 0
-178 2604 0
-3189 3190 0
-497 -145 0
-5 546 0
-396 395 0
-3174 3175 0
-895 -47 897 0
-1205 -70 1207 0
-516 515 0
-3242 -487 0
-100 1598 0
-200 199 0
-1534 96 1536 0
-162 2440 0
-2538 -172 2540 0
-2666 -435 0
-2775 2776 0
-1413 89 1415 0
-2290 2296 0
-839 -504 841 0
-93 1493 0
-1045 1046 0
-3241 3242 0
-952 -51 954 0
-3136 -219 3138 0
-1544 315 0
-1512 1516 0
-570 -399 571 0
-222 3190 0
-2969 450 2971 0
-258 3496 0
-646 647 0
-3110 -355 0
-1792 117 1794 0
-1170 1172 0
144 2200 0
-2363 -155 0
-706 -414 0
-1012 -55 1014 0
-2962 2963 0
-2652 186 2654 0
-2938 395 2940 0
-62 1085 0
-1879 1880 0
-2626 368 2628 0
-1388 389 1390 0
-1957 1960 0
-1062 331 1064 0
-2155 419 2156 0
-2020 2025 0
170 2495 0
-2247 2248 0
-236 235 0
-2386 471 2388 0
-2746 194 2748 0
-153 2340 0
-823 825 0
-2111 138 2113 0
-605 -15 607 0
-1596 380 0
-1165 -68 1166 0
-3097 3101 0
-841 -505 0
-1411 -392 0
-2229 146 2231 0
-651 -503 653 0
-2134 2138 0
-3231 486 3233 0
-2697 2698 0
-1614 1615 0
-3413 249 0
-3323 238 3324 0
45 877 0
-889 345 890 0
-1366 -84 0
-370 369 0
-133 2039 0
-1735 1739 0
-1578 -334 1580 0
-187 2705 0
-490 489 0
-77 1301 0
-1982 1983 0
-1575 -333 1577 0
-2749 2750 0
-2102 2103 0
-2724 353 2725 0
-3231 3235 0
-2049 2050 0
-1333 299 1335 0
-2631 2634 0
-2785 424 2786 0
-154 2343 0
-620 621 0
-2816 2817 0
21 654 0
-1083 -332 1084 0
-158 157 0
-66 1143 0
-2936 2937 0
-1635 -404 0
-2507 -421 2509 0
-2933 2942 0
-2078 469 2080 0
-1423 418 0
-305 -149 0
-2578 2581 0
-2244 -512 0
-2748 381 2750 0
-2103 -283 2105 0
-1412 88 1414 0
-588 -453 589 0
-3075 -215 3077 0
-618 427 619 0
-2851 305 2853 0
-906 -346 907 0
-2920 -204 2922 0
-210 209 0
-3019 -476 3020 0
-1001 56 1002 0
-1791 116 1793 0
-1383 87 1385 0
-2303 2304 0
-1094 1101 0
-3460 255 3462 0
-819 -42 820 0
-900 -346 0
132 2016 0
-1214 73 1216 0
61 1089 0
-447 -135 0
-3083 -326 3084 0
-3245 -488 0
-2977 -208 2979 0
-2281 -291 2282 0
-1216 74 1218 0
-1456 -443 0
-1889 1890 0
-2564 293 2566 0
-3398 357 0
-3137 3138 0
-639 -19 641 0
-2355 2356 0
-2743 192 2745 0
-344 343 0
-377 -63 0
-2676 2678 0
-3189 -222 3191 0
-1004 1007 0
-464 463 0
-3200 3203 0
-946 948 0
-1189 1190 0
-2469 380 2471 0
-2877 -308 0
-558 10 0
-665 -345 0
208 2963 0
-2480 2482 0
-918 377 0
17 628 0
-315 -111 0
-742 310 0
-3102 357 3103 0
-327 -229 0
-2805 2806 0
-2081 2083 0
-325 1766 0
-594 595 0
-2790 2791 0
-369 2928 0
-2143 2144 0
-132 131 0
-2089 -470 2091 0
-1361 1362 0
-2217 -146 2219 0
-2383 2391 0
-3046 296 3047 0
-1169 -430 1170 0
-2165 -419 0
-1540 313 1542 0
191 2743 0
-75 1281 0
-99 1597 0
69 1181 0
-2977 2978 0
-379 2482 0
-3103 358 0
-1782 -116 0
-2647 -409 0
-970 442 0
-2739 2742 0
-1463 -444 1464 0
-1511 1515 0
-2277 2278 0
-1553 1555 0
-266 265 0
-1495 1496 0
-387 -25 0
-2367 -393 2368 0
-2336 -153 2338 0
-1681 469 1683 0
-3044 3045 0
-2618 180 2620 0
-791 794 0
-3096 218 3097 0
-2340 2343 0
147 2245 0
-860 45 862 0
-2328 367 0
-2645 2646 0
-208 2956 0
-318 317 0
-3432 3434 0
-2299 337 2300 0
-23 679 0
-438 437 0
-630 19 632 0
-1163 1164 0
-683 -26 684 0
-2497 423 0
-1107 -64 1109 0
-1503 1510 0
-1687 1689 0
123 1901 0
-3459 254 3461 0
-1283 1284 0
-2514 -423 2515 0
-2772 -382 2773 0
-1758 -303 1759 0
-1213 72 1215 0
32 736 0
-373 687 0
-1507 1512 0
-1734 301 0
-2137 -304 2138 0
-3342 452 0
-1288 1290 0
-1765 -325 0
-957 -413 959 0
-2595 2601 0
-1812 1815 0
-2779 2780 0
-1997 1998 0
-1940 317 0
-702 -28 704 0
-2072 -136 2073 0
-2117 2118 0
-106 105 0
-771 359 773 0
-2842 2845 0
-638 -19 640 0
-1262 -401 0
-773 360 775 0
-951 952 0
-363 -73 0
-2604 2609 0
-2064 2065 0
234 3300 0
-145 2220 0
-1651 433 0
-168 2502 0
-1480 1483 0
-1723 1725 0
-2797 -424 2799 0
-1018 1019 0
-2913 369 2915 0
-1459 -444 0
-3214 3215 0
-371 -217 0
-3098 356 3099 0
-2562 178 2564 0
-3034 3038 0
-240 239 0
-2539 -173 2541 0
231 3271 0
-1363 -82 1365 0
-1120 1129 0
-1547 1550 0
-465 1289 0
176 2554 0
-885 48 886 0
-2646 -408 0
-1245 74 1247 0
-2600 340 2601 0
-3436 -251 3438 0
-3444 253 3446 0
-3045 297 0
-1499 -264 1500 0
-953 -51 955 0
-25 699 0
-3137 -219 3139 0
-3344 3347 0
-635 463 636 0
-2120 303 2121 0
-1972 337 0
-2900 -341 2901 0
-972 976 0
-2444 2449 0
-1257 1258 0
-3453 3454 0
-1739 1743 0
-678 376 0
-2734 -192 2735 0
503 831 0
-36 782 0
-2287 2288 0
-1262 1264 0
-325 -139 0
-437 -195 0
-80 79 0
178 2589 0
-805 806 0
-3310 -235 3312 0
-3184 224 3185 0
-1598 -101 1600 0
-1587 377 1589 0
195 196 197 198 457 458 459 460 0
-872 873 0
-2479 2481 0
-2421 2422 0
-393 -139 0
-177 2603 0
-1625 405 1626 0
-437 3201 0
-1695 -470 0
-1525 -288 0
-582 -11 584 0
8 555 0
-214 213 0
-1327 80 1329 0
-2488 2489 0
-303 -125 0
53 971 0
-2246 2251 0
-247 3419 0
-1576 -333 1578 0
-161 2439 0
-1059 1060 0
-3243 -486 3244 0
-3255 3256 0
-2576 -178 2578 0
-2276 -149 2278 0
-1526 1530 0
335 1973 0
-1687 -108 0
-3396 248 3398 0
-2550 -482 2551 0
-2128 2135 0
-1184 1186 0
-979 -52 981 0
-1893 1894 0
-1169 1171 0
276 733 0
-1651 1656 0
-3356 477 0
-1211 -287 0
-2738 2741 0
-1956 1959 0
-1898 1900 0
-2104 -283 2106 0
-3447 3449 0
-166 2458 0
-2665 2667 0
-685 -373 686 0
177 2568 0
-1123 66 1125 0
-531 532 0
-532 536 0
-1307 -507 0
-2563 2570 0
-998 1002 0
-3168 -409 3169 0
-2736 -354 0
-54 53 0
-1076 1082 0
-1384 87 1386 0
-3110 3111 0
-3374 298 0
-899 900 0
-765 -332 0
-297 -227 0
-2293 337 0
-1365 1366 0
-178 2582 0
-330 764 0
-1523 -287 1525 0
-129 1986 0
-68 1178 0
-556 9 558 0
-2395 2396 0
-1370 1372 0
-367 -165 0
-3220 3222 0
-2320 153 2322 0
-3162 3163 0
-504 503 0
-3338 240 3340 0
54 996 0
-1811 1814 0
-188 187 0
-3371 -502 0
-455 -157 0
-2763 2764 0
-1777 351 0
319 0
-95 1546 0
-1033 1034 0
140 2123 0
-413 -39 0
-3123 3131 0
-1138 -66 0
-1878 1881 0
-569 -10 570 0
-50 952 0
-3127 3133 0
-2830 2831 0
-1654 432 1655 0
-349 1787 0
-963 52 965 0
-2183 2184 0
-3412 3415 0
-1401 1402 0
-916 922 0
-125 1946 0
-1912 289 1913 0
-156 2367 0
-1784 -349 0
-453 -135 0
-1221 1225 0
-2753 382 2754 0
-2063 -135 2065 0
-138 2128 0
-2504 -170 2506 0
-2128 -139 2130 0
85 1382 0
-2897 2898 0
-3033 -513 3035 0
-2058 435 0
-1468 1469 0
-1299 507 1300 0
-2495 421 2496 0
-1013 -56 1015 0
-2710 -501 0
-224 223 0
-3393 246 3395 0
-446 1867 0
-228 3258 0
-752 -309 754 0
-585 -12 0
-3395 247 3397 0
-2964 2965 0
184 2650 0
227 3249 0
-3061 3069 0
-568 571 0
423 2787 0
-2122 2126 0
-2365 -156 2366 0
-2434 319 0
-2189 -143 0
-713 718 0
-358 357 0
-1665 1668 0
-644 -463 645 0
112 1740 0
-478 477 0
-10 582 0
-640 644 0
-1081 -62 1082 0
-1926 -290 1927 0
-2400 -471 0
158 2381 0
-3401 358 0
-1003 1006 0
-1566 334 1567 0
-1862 -445 0
-945 947 0
-2232 510 0
-3261 3263 0
-1589 378 1591 0
-164 2451 0
22 655 0
-3169 -410 0
-1579 -335 1581 0
11 0
-126 1925 0
-1078 -331 1080 0
-2037 2038 0
-3278 -232 0
-295 3055 0
-2505 -170 2507 0
-949 415 950 0
-2324 365 2326 0
-1375 1376 0
-59 1053 0
-1491 265 1492 0
-924 -48 926 0
-293 -161 0
-1035 -491 1037 0
-2811 -460 0
-2104 2105 0
-2739 -355 0
-2929 2931 0
-675 676 0
-1015 1022 0
-1442 1443 0
-2227 -481 2228 0
-198 197 0
-1019 1024 0
-2914 369 2916 0
-3097 355 3098 0
251 3443 0
-1971 1974 0
-2938 2939 0
-2291 2292 0
-1567 1569 0
-1848 122 1850 0
-3058 3059 0
-2303 -150 2305 0
-2540 -173 2542 0
-158 2376 0
-427 -27 0
218 3121 0
-1674 107 1676 0
-2112 2119 0
-2096 2100 0
-1802 391 1803 0
-2064 -135 2066 0
-379 -131 0
-2659 2660 0
-732 276 0
-1877 1878 0
-2381 159 2383 0
-2116 2121 0
-1576 1577 0
-2327 366 0
-3067 327 0
-519 276 0
-332 331 0
-226 3238 0
-2673 186 2675 0
-3166 -222 3167 0
-452 451 0
-868 -44 870 0
-96 1547 0
-3431 3433 0
-1829 418 1831 0
-540 7 542 0
-1701 1703 0
-1768 115 1770 0
-3493 3494 0
-453 -67 0
-2050 136 2052 0
-2623 367 2625 0
-2043 -405 2044 0
-981 982 0
1 517 0
-1060 1066 0
44 860 0
-1996 363 1998 0
-68 0
-2641 -370 0
-950 416 0
-2844 -273 2845 0
-329 763 0
-3318 3323 0
-1064 1068 0
-2131 2132 0
-120 119 0
-2473 382 0
-1019 -465 0
-1369 1371 0
-3451 -252 3453 0
-3219 -226 0
-98 1571 0
-141 2167 0
-2658 437 2660 0
-236 3327 0
-479 -107 0
-1111 1114 0
-1721 -281 1723 0
-3385 3390 0
-2296 337 2297 0
200 2847 0
174 0
-473 -171 0
-1416 1417 0
-18 638 0
-1426 -89 0
-167 2501 0
-220 3163 0
-840 -505 842 0
-1236 1240 0
-3209 459 3211 0
-1799 1800 0
-716 717 0
-68 1167 0
-2265 2266 0
-1954 -316 0
-254 253 0
-375 -37 0
-2119 140 2120 0
-1303 -505 1305 0
-1291 -467 1292 0
-1851 1852 0
-137 2127 0
-1032 494 0
-2551 -483 2552 0
-2902 -341 2903 0
-904 908 0
-916 376 918 0
-1226 312 1227 0
-1348 -301 0
-1567 335 0
-2918 371 0
-2638 2640 0
-3048 298 0
-426 425 0
-1151 1152 0
-1461 -444 1462 0
-3471 -256 3473 0
-162 2420 0
-1918 1919 0
-1682 469 0
-1271 1272 0
-3010 -212 3012 0
-3467 3468 0
-1753 1757 0
-124 1894 0
-661 -260 0
-2132 -303 2134 0
-971 975 0
295 3046 0
-3300 235 3302 0
-1738 1742 0
-1458 -443 1459 0
13 593 0
-221 3166 0
-2952 -395 0
-2825 2827 0
-556 557 0
-728 -491 729 0
-1517 290 0
-94 93 0
-3354 3358 0
-1568 335 1569 0
-228 3247 0
-1343 1345 0
-1893 -124 1895 0
-1985 -337 0
-1108 -64 0
-3135 3136 0
505 1297 0
-168 2480 0
-3305 236 3306 0
-2446 -318 0
-1465 -446 0
-2243 -511 0
-1390 1391 0
-1641 -406 0
-1005 464 1006 0
-3364 -242 0
-2909 205 2911 0
-1773 1774 0
-2681 474 2682 0
-2239 2240 0
-228 227 0
-2764 2769 0
-548 -7 0
-620 -16 622 0
-3269 3270 0
-873 876 0
-899 -345 0
-1598 1603 0
62 1090 0
-2607 2608 0
-1825 1826 0
-1524 1525 0
-1653 431 1654 0
-1660 1664 0
-3073 3074 0
-1602 1605 0
-930 -50 931 0
-3076 -216 3078 0
-3491 258 3493 0
-940 943 0
-1907 1908 0
-2174 -422 0
-1125 1126 0
-1441 443 1443 0
-2478 -168 2479 0
-2751 194 2752 0
-245 3390 0
-1245 1246 0
-1676 108 1678 0
-3441 3442 0
-1970 1973 0
-3138 -220 3140 0
-3225 -461 0
-2737 2740 0
-987 -54 988 0
-361 -47 0
-2679 2681 0
-2275 2276 0
-3359 478 0
-1014 -56 1016 0
-768 37 770 0
-2123 303 2124 0
-753 -309 755 0
-3266 3271 0
-791 -360 792 0
-68 67 0
-550 552 0
-3389 -327 0
-389 1409 0
-913 914 0
-612 613 0
-1379 1380 0
-707 -28 0
192 2744 0
-2570 294 2571 0
-1281 -76 1283 0
-1749 -301 1751 0
-120 1839 0
-3176 3177 0
-2154 421 0
-1916 -124 1918 0
-2922 -205 0
-409 3170 0
-664 665 0
-1781 -115 0
-202 201 0
-30 722 0
181 182 183 184 407 408 409 410 0
-1686 -107 0
-351 -151 0
-291 -137 0
-2060 435 2061 0
-2714 191 2716 0
-1047 1048 0
-2276 2279 0
-1387 1394 0
-2296 2300 0
-1110 1113 0
-2879 2888 0
-140 2139 0
113 1767 0
-1000 463 0
-2883 2890 0
-2343 2346 0
-3484 -257 3486 0
-2390 160 2391 0
-1036 -492 1038 0
-143 2191 0
-2925 -369 0
-1865 -446 1866 0
213 3058 0
-1219 1220 0
-2704 502 0
-2019 134 2021 0
-3405 -248 3407 0
-136 2086 0
-3031 3032 0
124 1902 0
-2006 2008 0
-2249 2250 0
-1948 1949 0
-2337 -154 2339 0
-980 -53 982 0
-2588 178 2590 0
-1221 74 1222 0
-2288 2295 0
-2715 2716 0
-2288 151 2290 0
-3114 -356 3115 0
-227 3257 0
-986 990 0
-1764 -324 0
-42 41 0
-1516 289 1517 0
191 2723 0
-200 2838 0
-2898 2901 0
-1088 -334 0
257 3491 0
-8 564 0
-1353 1354 0
-2136 2140 0
-2078 2081 0
-2940 396 0
-3254 307 3256 0
-1494 1499 0
202 2858 0
-3150 3151 0
-492 491 0
-2839 -271 2841 0
-2358 395 2360 0
-1224 313 0
-1646 106 1648 0
297 0
179 2618 0
-2283 -292 2284 0
-9 581 0
-2612 -339 2613 0
-176 175 0
-958 -414 960 0
-456 2521 0
-3005 477 3006 0
-2005 -131 0
189 0
-2328 2333 0
297 3374 0
-2818 2819 0
310 0
-3350 -452 0
-1628 1633 0
-1606 -377 1607 0
145 2229 0
-3446 254 0
-325 -201 0
-1855 1856 0
-214 3050 0
-1073 1074 0
-2580 2583 0
-1863 -445 1864 0
-758 -312 0
-1751 -302 0
-2622 2623 0
-3405 3409 0
-1016 -463 1018 0
-1733 1738 0
-3392 -328 0
-1860 1862 0
-2343 -365 2344 0
-2930 -371 2931 0
-1391 391 0
-1071 333 1072 0
-212 211 0
187 2697 0
173 2533 0
-2995 212 2997 0
-2198 -456 0
-3229 3234 0
-2689 2690 0
-3052 -296 3054 0
-1800 1805 0
161 2415 0
-3210 459 3212 0
-1410 -391 1411 0
-1807 -117 1809 0
-365 -139 0
-374 0
-1265 1267 0
-861 862 0
-2819 486 0
199 2828 0
-2118 304 0
-2052 2055 0
16 613 0
-941 51 0
-1198 71 1200 0
-1590 1591 0
-2178 144 2180 0
-419 -133 0
-3139 3140 0
-731 275 0
-2250 269 0
-2357 2358 0
-928 929 0
-3124 3125 0
-1452 -91 1454 0
-466 465 0
-518 275 0
-1008 465 1009 0
-1230 1237 0
-150 149 0
-1073 -60 1075 0
-3257 -228 3259 0
-2209 146 2210 0
-2482 2484 0
-2912 206 2914 0
-1457 1460 0
-1053 1055 0
-995 996 0
-3191 3192 0
-1237 -74 1238 0
-234 3309 0
-1762 1763 0
-2395 -158 2397 0
-1622 104 1623 0
-668 25 670 0
-1782 1784 0
-596 597 0
-2792 2793 0
-3160 411 0
-2145 2146 0
-1363 1364 0
-2912 2913 0
2 0
-1829 1830 0
-2357 394 2359 0
-842 -506 0
-3136 3141 0
-2674 2677 0
-97 1570 0
-663 664 0
252 3444 0
-3004 476 3005 0
-2979 2980 0
-1183 261 0
-3244 -487 3245 0
-219 3162 0
-740 309 0
-730 731 0
-825 -429 826 0
-1555 1557 0
-2986 -449 2987 0
-1497 1498 0
-307 -213 0
-2553 176 0
-835 836 0
-1336 301 1338 0
-2342 2345 0
-2449 -318 2450 0
-2865 -202 2867 0
-1495 -263 1497 0
-614 17 0
-1453 -91 1455 0
-1072 334 0
-2426 164 2428 0
-818 -42 0
-1239 -312 1240 0
-810 428 812 0
-1208 -72 1210 0
-2162 2168 0
-764 -331 0
-1991 130 1993 0
-3100 355 3101 0
-2097 284 0
-320 319 0
-7 550 0
-2994 211 2996 0
-440 439 0
-715 490 717 0
-2151 2155 0
-1689 1691 0
-3112 -218 3113 0
-1185 262 1186 0
-853 -259 855 0
-2699 2700 0
-969 970 0
-1752 1756 0
-199 2837 0
-1018 -464 0
463 1007 0
-7 563 0
-1526 -96 1527 0
-1814 1817 0
-2723 192 2724 0
-1999 2000 0
-2581 2584 0
-2194 -454 0
-484 2826 0
-3419 -248 3421 0
-109 1720 0
-431 1669 0
-1337 1338 0
-2886 2887 0
-1114 1117 0
-2066 2067 0
-637 638 0
-256 3484 0
-3366 -242 3367 0
-56 1034 0
-1554 -314 1555 0
-2266 150 2268 0
-213 3073 0
86 1383 0
-1224 1228 0
-2191 2193 0
94 1503 0
-1917 -125 1919 0
-2474 -166 2476 0
-1486 1487 0
-91 1457 0
115 1791 0
-1119 64 1121 0
-2882 204 2884 0
27 695 0
-2069 2075 0
-2954 -395 2955 0
186 2674 0
-3121 219 3123 0
-827 42 829 0
-582 587 0
-928 -50 0
207 2962 0
-1592 102 1593 0
-3287 234 3289 0
-2715 191 2717 0
-1339 -80 1341 0
-2840 2844 0
-3083 3086 0
-46 45 0
57 0
-1538 1539 0
-2305 2306 0
-445 -105 0
-2441 -163 2443 0
-3428 251 3430 0
-112 1761 0
-2186 456 0
-414 413 0
-3485 -257 3487 0
-3421 -249 3423 0
-1721 1724 0
-2024 405 2025 0
-2728 -190 2730 0
-1259 1260 0
-3455 3456 0
-1752 -112 1753 0
-2778 196 2780 0
-3161 412 0
-2406 -473 0
-3447 254 3448 0
-3118 -357 3119 0
-1264 1266 0
-523 6 525 0
-3217 3220 0
-2790 -194 2792 0
-2818 485 0
-401 -49 0
-1260 -76 0
-1006 1009 0
-1582 100 1584 0
-2899 -204 2900 0
-1519 -95 1521 0
-544 545 0
-750 -34 752 0
-1869 122 1871 0
-2093 2094 0
-3480 487 0
-82 81 0
-201 2870 0
-1311 1312 0
-1515 288 1516 0
-2142 -306 0
-1010 1011 0
-3448 439 0
-2332 367 2333 0
-687 -374 688 0
-1961 128 1963 0
-1378 1379 0
-2629 370 0
-1456 1459 0
-1214 1221 0
-2092 -472 0
-1571 -99 1573 0
-282 1726 0
-2223 2226 0
-2333 368 0
-2389 473 0
-1140 1143 0
-1761 1762 0
-118 1834 0
-2840 -272 2842 0
-1932 127 1934 0
-1218 1223 0
-216 215 0
-1985 1990 0
-2994 2995 0
-959 -414 961 0
32 731 0
-3406 -248 0
-372 0
-463 -29 0
-2232 2234 0
-94 1494 0
-2483 -381 0
-925 -49 927 0
-2368 -394 0
-388 387 0
-1895 1896 0
-1944 317 1945 0
-1945 318 0
-1233 1234 0
-3429 3430 0
-1520 -95 1522 0
-2667 2669 0
-339 2615 0
-1898 -267 0
-2304 -151 2306 0
-533 534 0
-2487 2492 0
252 3433 0
-1656 434 0
255 3475 0
-518 519 0
-2887 343 0
-1093 64 1095 0
-56 55 0
-2182 454 2184 0
-2603 -178 2605 0
-1602 -377 0
-945 413 946 0
-600 601 0
4 0
-1645 1653 0
-1480 -495 0
-1587 1594 0
-2150 2154 0
-77 1285 0
-3360 -240 3362 0
-585 586 0
-2192 2194 0
-1649 1655 0
-522 5 524 0
-1372 1374 0
-3164 3165 0
-1287 -465 1288 0
-2461 -354 0
-652 653 0
-2201 2202 0
283 2099 0
-190 189 0
-2684 476 0
-530 535 0
-339 -163 0
-1035 1036 0
133 2047 0
114 1768 0
-2746 2752 0
-2331 366 2332 0
-667 24 669 0
-3109 3114 0
-1341 -81 0
-368 2640 0
-165 2474 0
-2409 -474 0
-2956 -395 2957 0
-2437 319 2438 0
-737 33 0
-1869 1870 0
-1931 126 1933 0
-2718 353 2720 0
-3123 220 3125 0
-2399 -160 0
-2110 -286 0
-1207 1208 0
-213 3049 0
-3418 386 0
-1090 63 1092 0
-1976 -128 1978 0
-3181 3187 0
47 909 0
-2237 2238 0
63 1119 0
-1624 404 1625 0
-660 -259 0
-1285 -78 1286 0
-3109 -355 3111 0
-435 -141 0
-2703 2704 0
-317 -149 0
-3121 3130 0
-974 978 0
-1304 -506 1306 0
-30 29 0
-880 48 882 0
110 1729 0
-3105 -217 3107 0
-3377 245 3379 0
80 1328 0
-574 575 0
-1466 92 1468 0
-69 1205 0
-575 579 0
-1341 1342 0
-2866 -202 2868 0
-1984 -336 0
-2117 303 0
-2833 2836 0
-811 428 813 0
-1209 -72 1211 0
-433 -119 0
-1404 1407 0
-1346 1348 0
-2953 2956 0
-1558 98 1560 0
-1146 -388 1147 0
-313 -81 0
-722 -489 724 0
-1066 331 1067 0
-2249 268 0
-300 1349 0
-626 627 0
-38 797 0
-3476 257 3478 0
-1024 -466 0
-164 163 0
-947 949 0
-2900 2903 0
-2253 270 0
-1529 1533 0
-1471 1474 0
-2720 2726 0
-2148 419 2150 0
-2966 210 2968 0
-3315 -397 3316 0
-3025 3029 0
-122 1863 0
55 1001 0
-3216 -224 3218 0
250 3428 0
-759 -34 0
-1172 -432 0
-818 820 0
-1826 417 1828 0
-1061 1062 0
-1318 -80 1320 0
-1139 1142 0
-2901 -342 0
-2632 -181 0
-1201 1203 0
-2430 2434 0
-1444 1445 0
-1449 445 1450 0
-3043 296 3045 0
-2508 2514 0
-1483 -496 0
-1186 1188 0
-1953 -315 1954 0
-2566 294 0
-1374 -324 0
-407 2646 0
-3337 239 3339 0
52 945 0
-471 -143 0
-4 3 0
-2692 -474 2694 0
-2344 -366 2345 0
-3060 3061 0
-360 -359 -14 -13 0
-3122 219 3124 0
-548 549 0
-1564 333 1565 0
-1613 1622 0
-901 -48 902 0
104 1643 0
123 1885 0
-734 278 0
-1664 -431 1665 0
-3233 487 0
125 1931 0
-2322 2330 0
-1689 -467 0
-2755 381 2756 0
-1156 430 1158 0
-2011 -364 2012 0
-2030 408 0
-454 453 0
-573 11 575 0
-2752 381 2753 0
-1129 66 1130 0
-3232 3233 0
-2220 -146 2221 0
-947 414 948 0
-138 137 0
-1990 -338 0
-46 894 0
-2412 2413 0
-1523 1528 0
-983 984 0
-3106 -217 3108 0
-892 348 0
-1077 -62 1079 0
-370 0
-1280 468 0
-1750 1751 0
-1735 302 0
-3299 3300 0
56 1026 0
-506 505 0
201 2878 0
-2133 2134 0
-1722 -281 0
-3432 411 0
-2069 -434 2071 0
-751 -34 753 0
-3173 -412 0
-436 2671 0
-373 -13 0
-1436 90 1438 0
-2829 271 2831 0
-697 413 698 0
-2686 -187 2688 0
-1113 1116 0
-2662 2665 0
-3330 -238 0
-1418 1419 0
-83 1375 0
-218 3136 0
-1672 106 1674 0
-2185 2186 0
-31 747 0
-1974 337 1975 0
-1238 1242 0
-2885 342 2887 0
-211 3031 0
-47 924 0
-25 683 0
-1373 -323 1374 0
-283 2108 0
133 2023 0
-944 413 0
157 2380 0
-2914 2915 0
-101 1627 0
-1058 1065 0
-817 -41 0
-960 -415 962 0
-2009 2011 0
-1588 377 1590 0
-1324 -280 1325 0
-948 415 0
-911 49 913 0
-1062 1067 0
-1157 430 1159 0
-522 523 0
219 3150 0
-2854 2858 0
-60 59 0
-1549 -98 0
-1471 495 0
-1131 388 1132 0
-2781 2784 0
-2721 354 0
-1907 289 1909 0
-2319 2320 0
81 1351 0
5 538 0
-1844 -420 0
-428 427 0
-2017 133 2019 0
-1496 -264 1498 0
-27 707 0
-2425 163 2427 0
-2185 455 0
-1920 1921 0
-1168 -430 0
-72 1230 0
-1273 1274 0
-210 2986 0
-3081 -326 0
-3379 246 0
-3469 3470 0
-2452 -318 2453 0
-2386 2387 0
-1242 -312 1243 0
-957 958 0
-544 373 0
180 2619 0
-830 504 0
-1026 491 1028 0
-480 479 0
-2007 -132 2008 0
-558 559 0
-973 442 974 0
-2087 -469 2089 0
-2105 -284 2107 0
-782 787 0
-1791 1792 0
-2672 -438 0
-337 -139 0
-1029 1031 0
-1795 118 1797 0
-2711 -501 2712 0
-2362 -155 2364 0
-2392 472 2393 0
-3361 3366 0
154 2350 0
-449 -195 0
-757 -311 0
-102 1606 0
-2159 2160 0
-3078 -325 0
-1921 1924 0
-2241 2242 0
-2947 -206 2949 0
-2171 -419 2172 0
-797 798 0
-359 -23 0
-1607 -378 1608 0
-2594 339 2596 0
-34 33 0
-759 760 0
-2528 2535 0
200 2829 0
-2530 482 2532 0
-559 562 0
-2329 154 2330 0
310 745 0
-3075 3076 0
-2293 2294 0
-1804 393 1805 0
-402 401 0
-263 1499 0
179 2598 0
-1139 -387 0
-2719 353 2721 0
-1853 446 1855 0
-1247 1248 0
-3443 3444 0
-119 1857 0
-2057 434 2058 0
250 3417 0
-552 -373 553 0
-3486 -258 3488 0
-2573 -176 2575 0
-2047 134 2049 0
-2743 2744 0
-1903 125 1905 0
-1961 1962 0
-1130 387 1131 0
100 1564 0
-2543 2546 0
145 2209 0
-1702 509 1703 0
-70 69 0
-2032 -133 2034 0
-1305 -506 1307 0
153 2329 0
-2886 342 0
-496 1883 0
71 1213 0
-2063 2072 0
-1698 507 0
-2091 -471 0
-216 3105 0
-2610 2613 0
-896 902 0
-1343 -82 1344 0
-1987 -335 1988 0
-3327 -237 3329 0
-2974 450 2975 0
-3202 -439 3203 0
-45 893 0
-2490 170 0
-3163 -221 3165 0
-593 14 0
-1805 394 0
-2205 479 2207 0
-2396 -159 2398 0
-628 18 630 0
-3036 -515 0
201 2854 0
-1778 352 0
-3084 -327 0
-3045 3048 0
-530 -5 532 0
-8 7 0
-1180 -480 0
-1424 -88 1426 0
-2865 2871 0
-3049 3050 0
-131 2007 0
-3023 513 3025 0
87 1412 0
-2267 2268 0
-1620 1621 0
-2345 2348 0
-489 727 0
-1313 280 0
-1643 105 1645 0
-376 375 0
-2869 2873 0
-2770 -383 0
-64 1135 0
-566 -10 568 0
-333 -73 0
-3479 258 3480 0
-1085 -331 1086 0
-3177 224 3179 0
-2334 2335 0
-3010 3018 0
-1004 463 1005 0
-1445 1450 0
-2621 182 2623 0
-2008 2010 0
-2287 150 2289 0
-453 -17 0
-321 1371 0
-101 1603 0
-2908 204 2910 0
-2479 -379 0
-2717 2718 0
-1692 1694 0
-3454 -254 3456 0
-988 992 0
-44 43 0
-2780 2783 0
-1755 1759 0
-1882 -497 0
-1050 1053 0
-510 509 0
-2879 203 2881 0
-1235 1236 0
-3385 -245 3387 0
-1817 1820 0
-1355 1356 0
-2814 483 2816 0
-2056 433 2057 0
-3269 232 0
-3309 3314 0
-1785 -349 1786 0
-1498 -265 0
-401 802 0
-2352 156 2354 0
-2424 2431 0
-2512 -421 2513 0
-3152 3153 0
-2443 -164 2445 0
-3293 -233 0
-601 387 603 0
-2012 -365 0
-1962 1967 0
-180 2612 0
-1422 1423 0
-3016 -477 0
-3376 3381 0
-2729 2734 0
-2189 2190 0
-178 177 0
-799 -399 0
-1947 1952 0
-2793 -196 2795 0
-1421 417 1423 0
-2873 -307 0
45 865 0
-1142 -388 0
-1605 -378 0
-110 1745 0
-2639 -369 0
-2194 2196 0
-2471 381 2473 0
-361 1116 0
-3402 -246 3404 0
-3035 -514 0
-491 -41 0
-3178 224 3180 0
-1488 264 0
-1857 1858 0
-832 834 0
-1075 1076 0
64 1120 0
-2624 2625 0
-1195 1196 0
-1135 -65 1137 0
-966 54 968 0
-230 3275 0
-2202 2210 0
-2144 2151 0
-1200 1202 0
-1924 -290 0
-2884 341 2886 0
-1980 -130 1982 0
-3172 -411 3173 0
-2691 2692 0
-2206 2212 0
-305 -161 0
-498 2413 0
-3018 -475 3019 0
-18 17 0
-2107 2110 0
-1082 1086 0
-2354 393 2356 0
-527 329 528 0
-226 3222 0
-484 483 0
-1749 1754 0
-1209 1210 0
-127 1952 0
213 3040 0
-21 658 0
-1329 1330 0
-2861 308 0
-3001 475 3002 0
-1447 443 1448 0
-1663 -106 1664 0
-2821 2824 0
-2532 483 0
-2620 181 2622 0
-3403 3408 0
-733 277 0
-48 905 0
-3087 -328 0
-1038 -493 1040 0
-206 2948 0
-3126 3127 0
-1858 1861 0
-3494 516 0
-1292 -468 0
-315 1958 0
-623 -18 625 0
44 844 0
-1661 -106 0
-3246 3247 0
-3236 488 0
-614 615 0
-1268 -404 0
-2163 2164 0
-692 695 0
-152 151 0
-1921 -289 0
-664 -24 0
-1459 1462 0
-2878 202 2880 0
-997 998 0
-2579 -178 2580 0
-3193 3194 0
509 2233 0
-1764 1765 0
414 949 0
-612 16 614 0
-739 741 0
-2531 2532 0
-150 2304 0
-2609 2612 0
-1069 331 1070 0
241 3357 0
-2640 -369 2641 0
-465 -67 0
-2554 269 0
-880 886 0
-116 1807 0
-855 -260 857 0
17 616 0
-864 867 0
-1831 1832 0
-1822 119 1824 0
-1611 -380 0
-1418 415 1420 0
-884 888 0
-1574 -100 1576 0
-1894 1897 0
-411 -235 0
-1836 1838 0
-2827 -486 0
-608 -16 609 0
-2486 168 2488 0
-2981 2982 0
-931 934 0
-479 2226 0
-767 776 0
-2312 -337 2313 0
-2963 2972 0
-1501 -266 0
-2695 -475 0
-788 -359 789 0
126 1932 0
-1998 364 2000 0
-876 -322 0
-2156 420 2157 0
-3246 -228 0
-3033 3034 0
-151 2334 0
-2000 365 2002 0
-1556 -315 1557 0
-1082 -331 1083 0
-2145 141 2147 0
-1303 1304 0
-2003 -130 2005 0
-2853 2857 0
-74 1241 0
-1145 -389 0
-1608 -379 0
-893 -46 895 0
-1906 1913 0
-1487 264 1489 0
-1952 -128 1953 0
-387 -37 0
-1470 494 0
-844 259 846 0
-1428 1430 0
-442 441 0
96 1514 0
-1910 1915 0
-2153 2157 0
142 2155 0
-1128 1133 0
-2252 269 2253 0
-1474 496 0
-1434 -417 1435 0
-724 728 0
-126 125 0
-2460 -353 0
-253 3467 0
-71 1229 0
-2982 2985 0
-3225 3227 0
-1745 -111 1747 0
-3391 -327 3392 0
-3287 3288 0
-1265 -402 1266 0
-2505 2506 0
-829 503 0
-848 261 0
-2895 -203 2897 0
-494 493 0
-2502 2511 0
-2583 2586 0
-873 -321 0
-1396 392 0
256 3465 0
-824 -429 0
-238 3344 0
-2730 -191 2732 0
-400 801 0
-1863 1865 0
-2033 -133 2035 0
-415 1432 0
-2095 283 2097 0
-3063 325 3065 0
-1988 -336 1989 0
15 612 0
-3029 515 3030 0
-1334 300 1336 0
-1182 261 1184 0
-2450 -319 0
-3421 3422 0
-1194 -263 1196 0
-363 -85 0
48 910 0
-3302 236 3304 0
89 1436 0
-1548 -97 0
-1319 -279 1321 0
-229 3261 0
-2230 509 2232 0
-2055 2058 0
-3022 3023 0
-3320 238 3322 0
-1089 62 1091 0
-713 489 715 0
-3007 3008 0
-804 41 806 0
-3026 514 0
-48 47 0
-2784 2787 0
-642 -463 0
120 1846 0
-1573 -100 1575 0
-2277 -149 0
-2832 272 0
-1540 1541 0
-3030 516 0
-2365 2367 0
-3465 461 3466 0
-1006 465 0
-1340 1343 0
-2307 2308 0
-229 3274 0
-2427 2428 0
-1603 -102 1604 0
-416 415 0
-2175 142 2177 0
-2596 340 0
-1630 -104 1632 0
-100 99 0
-3457 3458 0
-1407 1410 0
-2374 2375 0
-2956 2959 0
-1485 1490 0
-1401 -88 0
-3277 3281 0
-1712 1713 0
-1444 444 0
-468 467 0
-546 547 0
-1193 -262 1195 0
-2095 2096 0
224 3205 0
-1012 1013 0
-3208 3209 0
-1837 1839 0
-919 50 920 0
-1522 -96 1524 0
-1779 1780 0
-2161 -141 2163 0
-2251 268 2252 0
-3328 3329 0
-1994 132 1996 0
-3329 3333 0
-79 1339 0
474 2683 0
-437 -207 0
-1380 1381 0
-176 2574 0
-2147 2148 0
-3395 3396 0
-2054 433 2055 0
-3094 355 0
-1924 1927 0
-1472 494 1473 0
-2771 -381 2772 0
-3047 297 3048 0
-3396 3400 0
-1142 1145 0
-738 740 0
-2767 -194 2768 0
-2229 2230 0
-149 2303 0
-2536 483 2537 0
-2500 424 0
-2996 2997 0
-3165 -222 0
-1045 60 1047 0
-2214 2215 0
-1253 402 1255 0
-1883 -497 1884 0
-22 21 0
232 3284 0
-637 -18 639 0
-3037 -514 3038 0
-1289 -466 1290 0
-89 1428 0
-547 550 0
-3061 216 3063 0
-3028 514 3029 0
-1389 390 1391 0
-1932 1941 0
-2314 -339 0
94 1485 0
-930 933 0
-390 389 0
-2429 317 0
-1697 1700 0
-3179 437 3181 0
-82 0
-1979 1987 0
-2053 136 2054 0
194 2776 0
-63 1134 0
-967 54 969 0
-417 1841 0
-2468 2469 0
-1983 1989 0
-2168 2172 0
-1247 75 1249 0
-2304 2311 0
-377 -73 0
72 1214 0
-479 -121 0
-801 -401 0
-38 790 0
-2871 -305 2872 0
-2436 318 2437 0
-520 521 0
139 2143 0
-626 -427 0
-3182 3183 0
-189 2728 0
-2070 -434 0
-1816 1819 0
271 2834 0
-555 9 557 0
-2941 397 0
-1562 100 1563 0
-3144 -383 3145 0
-1233 -74 1235 0
173 0
-2999 475 3000 0
-112 1756 0
-2989 -450 2990 0
-3270 343 0
-654 655 0
-2203 2204 0
-2792 -195 2794 0
-2970 2971 0
-2777 195 2779 0
-2592 180 2594 0
-717 491 0
-2023 2027 0
-1729 111 1731 0
-169 2511 0
-721 722 0
421 2498 0
-654 22 656 0
-163 2447 0
-1488 1489 0
-2597 341 0
-2857 2861 0
-364 363 0
-846 848 0
-172 2519 0
-1089 1090 0
-138 2103 0
-1836 -120 0
-3437 -251 3439 0
-2396 2401 0
-2535 482 2536 0
-550 -8 551 0
-2273 293 0
-3073 -214 3075 0
-2678 473 0
-1541 314 1543 0
-1352 83 1354 0
-2400 2403 0
-1753 -301 1754 0
-2498 422 2499 0
-3422 -250 3424 0
-2963 209 2965 0
-1759 -304 0
-1202 287 0
-2682 475 0
-2408 -473 2409 0
-2705 2706 0
-1950 -128 0
-3056 -297 3057 0
-32 31 0
508 1702 0
-497 2412 0
-498 497 0
-1594 378 1595 0
-407 -139 0
-1999 364 2001 0
-44 852 0
-1505 1511 0
-3367 -477 3368 0
-2258 -268 0
-146 2238 0
-1406 1409 0
-2221 -479 2222 0
-3175 3184 0
-1348 1350 0
-2955 2958 0
-2699 499 2701 0
79 1309 0
-1269 76 1271 0
-1243 -313 1244 0
-3179 3186 0
-686 688 0
-2435 317 2436 0
-1599 -101 1601 0
-2023 134 2024 0
-628 629 0
-205 2947 0
-3493 515 0
-40 799 0
-2177 2178 0
-152 2315 0
-166 165 0
-3128 384 0
-2114 140 2116 0
219 3130 0
-76 1263 0
-1174 479 1176 0
-1746 -111 1748 0
-3011 3012 0
-573 578 0
-2181 453 2183 0
-2212 481 2213 0
-2731 -192 2733 0
-2847 2854 0
-2831 2835 0
-338 337 0
-1845 1846 0
-820 822 0
-1063 1064 0
-115 1806 0
-2732 -192 0
-2892 344 0
-2369 2371 0
-1183 1184 0
-3379 3380 0
-11 587 0
-2432 2436 0
-2635 -367 0
-2776 195 2778 0
-2714 2723 0
-1812 -118 1813 0
-3141 3144 0
-3198 -437 3199 0
214 3041 0
-2292 337 2294 0
-2017 2018 0
-6 5 0
-670 26 672 0
-2398 -160 2400 0
-1320 -279 1322 0
-3023 3028 0
-1220 312 0
-472 471 0
-1188 264 0
-1197 1198 0
-2330 365 2331 0
-2955 -396 0
251 3431 0
-325 -149 0
-1457 -92 1458 0
-613 616 0
-615 18 0
-2384 160 2386 0
-1137 1141 0
-663 -23 0
-858 -262 0
-3186 438 3187 0
-2214 -144 2216 0
-769 38 771 0
-1737 301 1738 0
-1384 1385 0
-1340 -81 1342 0
-602 603 0
-1113 -361 1114 0
-1435 -418 0
-680 683 0
-140 139 0
-2933 207 2935 0
-735 32 737 0
-656 259 0
80 1310 0
-3274 -230 3276 0
-1163 -67 0
-1901 124 1903 0
-2029 407 2030 0
-3301 3302 0
-2923 2925 0
-669 670 0
-2727 356 0
-2519 2520 0
-2034 2040 0
-2218 2219 0
-508 507 0
-2862 -200 2864 0
-116 1785 0
-1436 1437 0
-3226 -461 3227 0
-2545 -481 2546 0
-649 504 0
-2038 2042 0
72 1203 0
-1050 -59 1052 0
-1264 -402 0
-399 800 0
504 833 0
-1157 1158 0
-1995 132 1997 0
-3280 -232 3281 0
-1685 -107 1687 0
-3353 3354 0
-2113 139 2115 0
-85 1377 0
-1925 -289 1926 0
-3273 344 0
-921 376 922 0
-975 441 976 0
-489 -19 0
-3435 3436 0
-273 3248 0
-2653 2654 0
-2001 365 0
-2546 -482 0
-3363 -242 3365 0
-2601 341 2602 0
-445 1865 0
-1104 -62 1106 0
-2011 2013 0
-3240 3244 0
-2254 2255 0
-524 525 0
-934 -376 935 0
-3487 3488 0
227 228 273 274 0
-137 2102 0
-3204 224 3206 0
-2783 2786 0
-1966 335 0
-2463 167 2465 0
-2321 2322 0
-1296 1298 0
-2416 285 2418 0
-2903 2906 0
-1161 -66 1163 0
-1547 -97 1549 0
-3088 3089 0
175 0
-401 -65 0
-787 -38 788 0
-576 577 0
-3175 223 3177 0
-114 113 0
-1843 -419 1844 0
-2388 2389 0
-3015 -476 0
-959 960 0
-2188 2191 0
-2543 -481 0
-321 -59 0
-223 3216 0
-482 481 0
-838 -504 840 0
-1148 -390 0
-2313 2317 0
-2795 2802 0
-2093 138 2095 0
-1550 1552 0
-3308 -234 3310 0
-1793 1794 0
-2560 2561 0
-2896 -204 2898 0
-1506 96 1508 0
-3347 3349 0
-1296 506 0
-1155 429 1157 0
-1029 492 1030 0
237 3335 0
-298 -297 -244 -243 0
169 170 171 172 455 456 457 458 0
-2990 -451 2991 0
-2972 210 2973 0
-1923 1926 0
-1276 466 1278 0
-3425 -385 0
-3469 -255 3471 0
-2447 2451 0
-3414 3416 0
-2208 481 0
-1930 -292 0
-3131 383 3132 0
-1231 -73 1233 0
-184 2645 0
-279 1324 0
-2015 132 2017 0
-1730 111 1732 0
-36 35 0
-409 2648 0
-3077 3078 0
-815 -40 817 0
-54 1011 0
-3062 3063 0
-2415 2416 0
-139 2135 0
-404 403 0
-2822 -483 0
-3195 -224 3196 0
106 1673 0
-2073 -433 2074 0
-88 87 0
-532 -6 534 0
127 1961 0
70 1198 0
-1577 -334 1579 0
-2269 291 2271 0
-2201 145 2203 0
-1542 314 1544 0
-1417 415 1419 0
-1773 349 1775 0
-1973 336 1974 0
-3423 -250 3425 0
-3249 3250 0
-2580 -293 2581 0
-456 455 0
-2545 2548 0
-1948 -127 1950 0
-1096 362 1098 0
-128 1977 0
-1462 1465 0
-2526 174 2528 0
-1058 61 1060 0
-1767 1768 0
-3174 222 3176 0
-3074 3079 0
-2549 -483 0
-2612 2615 0
-1585 102 1587 0
-1150 67 1152 0
-3259 -229 0
95 1510 0
-3164 -221 0
-1888 266 1890 0
-3372 244 0
-546 -6 548 0
243 0
-2759 -192 2761 0
216 3089 0
-3303 236 0
-2115 140 2117 0
-1878 -495 1880 0
-727 -490 728 0
-2706 -499 2708 0
-1813 -391 1814 0
-10 9 0
-2022 2026 0
135 2053 0
-1502 1503 0
-1017 1023 0
-1215 73 1217 0
-3051 3052 0
-30 710 0
-720 492 0
-3430 252 0
-2269 2270 0
-251 3451 0
-2139 -303 2140 0
-42 821 0
230 3266 0
49 939 0
-2150 420 0
-378 377 0
-2871 2875 0
-1786 -350 0
-2202 146 2204 0
-2856 2860 0
-936 -376 937 0
-62 61 0
506 1299 0
-1328 81 1330 0
-2502 -169 2504 0
-3419 3420 0
-2336 2337 0
-2468 379 2470 0
-1690 -467 1691 0
-823 -428 824 0
-1704 -108 1706 0
-2456 2457 0
-1674 1675 0
-2572 296 0
-1227 313 1228 0
-641 -20 0
-1937 1938 0
-3415 250 3416 0
-3196 -437 3197 0
-2523 2524 0
-1508 287 0
-671 26 673 0
-512 511 0
-2374 -157 0
-2915 370 2917 0
-2223 -479 2224 0
-747 -32 749 0
-447 -141 0
-1581 -336 0
-1443 444 1445 0
-2872 -306 2873 0
-3295 3297 0
-2242 -511 2244 0
-2083 471 2084 0
-3237 -226 3239 0
-3071 327 3072 0
-3358 477 3359 0
-314 1556 0
-347 1379 0
-1808 1809 0
215 3068 0
257 3479 0
-8 552 0
162 2424 0
-633 463 0
-770 38 772 0
-1021 -463 1022 0
-1166 1168 0
-1057 60 1059 0
-3211 460 3213 0
-1864 -446 0
-2778 2782 0
243 3372 0
-709 710 0
-2258 2259 0
-267 2260 0
-1301 -78 1303 0
-9 569 0
-2243 2244 0
-1316 281 1317 0
-2363 2364 0
-1377 -86 0
-352 351 0
-2626 2627 0
-1120 65 1122 0
-3393 3394 0
-3092 3093 0
-2368 2370 0
-2446 2450 0
-881 882 0
-592 490 0
-427 823 0
-1202 1204 0
-3158 410 3160 0
-3313 -397 0
-468 1694 0
-631 20 633 0
9 572 0
-2360 396 0
-2493 2496 0
-2031 2032 0
-1730 1731 0
-1569 336 0
-1084 1088 0
-2317 -339 2318 0
-2848 201 2850 0
-1026 1029 0
-486 485 0
-2255 2260 0
-1640 -405 1641 0
-41 835 0
-1331 1332 0
-2203 146 2205 0
-1042 59 1044 0
-2582 -293 2583 0
-1329 81 1331 0
-3297 -371 3298 0
-1842 -419 0
-204 2921 0
-1087 -333 1088 0
-1166 -429 0
-2843 -272 2844 0
-2983 -210 2984 0
-2385 2392 0
-1223 312 1224 0
-1198 1201 0
-2165 2166 0
13 596 0
-3176 223 3178 0
-2911 206 2913 0
-2932 2933 0
-2284 -293 0
117 1821 0
-1145 1148 0
-2752 2756 0
-741 743 0
-3365 -477 0
-803 804 0
-1890 267 1892 0
-2708 -500 0
-3183 439 0
-114 1780 0
-1570 1571 0
-240 3361 0
-2817 485 2819 0
-326 325 0
-2197 -455 2198 0
-2126 306 0
-1047 299 0
-1747 -112 1749 0
-234 3297 0
-1633 1636 0
-2870 -202 2871 0
-341 2905 0
-283 -123 0
-871 875 0
-1386 88 1388 0
-2027 405 2028 0
-2362 2365 0
-1762 -114 0
-3388 -246 0
-1716 282 1718 0
-933 936 0
-1217 74 1219 0
-2509 -422 0
-996 1001 0
-212 3032 0
-581 -10 583 0
-2005 2006 0
-1704 1705 0
-3038 -515 3039 0
-1277 466 1279 0
-1315 280 1316 0
-2052 433 0
-800 -400 0
-1309 80 1311 0
-1232 -74 1234 0
-1000 1003 0
-460 459 0
-3196 3199 0
-2152 419 2153 0
-538 539 0
-2010 2012 0
-878 885 0
-1305 1306 0
-3167 -409 0
-43 868 0
-2597 2602 0
-1403 -88 1404 0
-1321 -280 1323 0
-3011 -212 3013 0
-2717 192 2719 0
-1834 1837 0
-1430 1432 0
-2339 -365 0
-590 591 0
-2607 -180 0
-128 127 0
-1969 336 0
-1357 1358 0
-710 711 0
-972 441 973 0
-2984 2987 0
197 2812 0
-2926 2928 0
-483 2824 0
-3250 229 3252 0
-1409 -390 1410 0
-93 1518 0
-3289 3290 0
14 597 0
-597 15 599 0
-2507 2508 0
-1424 1425 0
-2741 -355 2742 0
-3316 -398 0
-1971 336 1972 0
-16 610 0
-3294 3296 0
-2026 2030 0
-2404 -471 2405 0
-1564 1566 0
-3036 3039 0
-918 923 0
-435 -155 0
-2738 -354 2739 0
-3145 -384 3146 0
-1549 1551 0
-3341 3342 0
-1385 1393 0
-379 -139 0
-1835 -119 0
-1151 67 1153 0
-2457 -166 0
-1838 -417 0
-1236 -312 0
-1389 1395 0
-861 45 863 0
-183 2661 0
-3423 3424 0
-42 836 0
-3165 3167 0
-2537 484 0
-1128 389 0
-3059 3068 0
-1294 505 1296 0
-2026 407 0
-2057 2060 0
-1122 66 1124 0
-2698 499 2700 0
-434 433 0
-453 -75 0
168 2487 0
-3286 234 3288 0
-3134 386 0
-1279 1280 0
-3475 3476 0
-888 347 0
-2996 212 0
-173 2544 0
-76 0
-782 -37 784 0
-1284 1286 0
226 3229 0
-3368 -478 0
-2429 2430 0
-1986 -130 1987 0
-3021 -478 0
-2113 2114 0
-2896 2900 0
-642 645 0
