p cnf 3139 5870
-2881 349 2883 0
-102 101 0
-1871 1876 0
-2838 2841 0
-2176 2179 0
-2654 339 0
-631 632 0
-2238 2240 0
-2841 -305 0
209 3009 0
-354 -353 -24 -23 -22 -21 0
-2005 -132 2007 0
-2234 -149 0
-1014 1015 0
178 2612 0
-2563 2564 0
-361 2334 0
7 515 0
-1781 1782 0
-3088 3093 0
-194 2861 0
-3092 3095 0
-2400 -452 2401 0
-2615 2616 0
-57 1001 0
-2895 -350 2896 0
-2335 -363 0
-2597 -177 2599 0
111 1753 0
-206 2985 0
-1311 1313 0
-24 23 0
-2036 2040 0
-953 957 0
-2502 2506 0
-57 1014 0
-415 1306 0
-2497 172 2499 0
-1908 128 1910 0
-2983 -206 2984 0
-3050 3051 0
-2403 2404 0
-1826 -401 1827 0
-2185 -406 0
-901 -52 903 0
-2615 180 2617 0
-1719 110 1721 0
-882 50 884 0
-616 619 0
-76 75 0
-1383 1386 0
-2918 -200 0
-758 40 759 0
60 1023 0
177 2591 0
-1215 317 1216 0
-1118 66 1120 0
-2718 391 2719 0
-741 745 0
-2933 202 0
-444 443 0
-40 792 0
-1470 399 1472 0
-858 -445 860 0
-389 -143 0
-724 281 0
-1755 1756 0
-1184 296 0
-786 342 0
-182 2671 0
-1392 -286 0
-1055 1056 0
-2905 2906 0
-309 -137 0
-2697 -363 0
-1822 1823 0
-2589 2590 0
-2725 2729 0
-2337 158 2339 0
-983 381 984 0
-996 1003 0
-1423 1424 0
-2190 2191 0
-2569 240 2570 0
-1000 1005 0
-2047 -268 0
-1868 123 1870 0
-1701 421 1703 0
-2167 403 2168 0
-3003 208 3005 0
233 1327 0
-629 -395 0
-2649 337 0
-1006 58 1008 0
-1630 -333 1632 0
-2612 2619 0
-2072 2075 0
-3039 3040 0
-1290 1293 0
-2390 453 0
-712 -251 714 0
-3024 3025 0
-97 1573 0
152 2277 0
-366 365 0
-429 -213 0
-50 49 0
-2100 142 2102 0
-2382 2384 0
-263 -59 0
-3091 3092 0
-1074 64 1076 0
-2144 2148 0
-1432 -90 0
-1740 1743 0
-1346 264 1348 0
-1744 1745 0
-363 -169 0
-2936 407 2937 0
-962 963 0
-2683 184 2684 0
-2511 2512 0
-1823 -120 0
-1729 1730 0
-425 -145 0
-3036 3041 0
-696 35 0
-2056 288 0
-563 564 0
-2022 136 2024 0
-2879 2880 0
-1854 1856 0
-921 315 922 0
-1612 1618 0
-2585 178 2587 0
-1932 1936 0
-1633 -104 1634 0
-2699 2703 0
-1080 -63 0
-1674 1679 0
-1616 1620 0
-2237 2239 0
261 3054 0
-410 671 0
-2268 -152 2269 0
-1397 1398 0
-2164 2165 0
-1394 87 1396 0
-1217 1221 0
-2696 -363 2698 0
-1768 -114 0
-22 608 0
143 2136 0
-2246 2247 0
-895 294 896 0
-1206 72 1208 0
-1632 -334 0
448 1725 0
-2586 2593 0
55 976 0
-2082 140 0
-2528 2534 0
-371 1807 0
-2454 -168 2455 0
-2066 2070 0
24 616 0
-802 803 0
-2311 335 2313 0
-2351 2352 0
-2446 327 2447 0
-2833 2837 0
-340 339 0
-1993 1996 0
-2372 428 0
-1589 1591 0
-1531 1532 0
47 0
-1117 -400 0
-2356 2358 0
165 2433 0
-2659 -180 2661 0
-2724 -185 2726 0
-2789 261 0
-2418 2419 0
-1670 385 1672 0
33 678 0
-1369 283 1371 0
-1594 321 0
-2180 2183 0
-908 -294 909 0
-2288 302 2289 0
-1293 -384 0
-1895 -300 1896 0
-1431 -89 0
-749 -284 0
-459 229 0
-1892 -300 1893 0
-3008 351 0
-476 -4 0
-1304 1305 0
-1846 -439 0
-1100 399 1101 0
-187 2758 0
-1472 400 1474 0
-1544 276 0
-1066 1069 0
-2535 406 2536 0
-901 907 0
-604 605 0
-1371 1372 0
-552 14 0
-724 725 0
-482 487 0
-2422 -166 2424 0
-2839 -303 2840 0
-2216 2219 0
-486 489 0
-2154 -373 2155 0
-3035 -212 3037 0
-2220 2221 0
-333 -87 0
-2477 350 0
-600 323 0
-791 792 0
-2987 2988 0
-700 251 701 0
-1586 101 1588 0
158 2338 0
-314 313 0
-2544 -174 2546 0
-421 -79 0
-2992 2994 0
-1851 275 1853 0
-2102 345 2104 0
-644 -380 0
-2103 2109 0
-918 54 0
-1505 1506 0
-480 -272 0
-114 1771 0
-1625 1626 0
-2350 2353 0
-1817 403 1819 0
-3085 -311 0
-188 2761 0
-921 924 0
433 1122 0
-1656 -106 1658 0
-1688 1691 0
106 1666 0
-523 -8 525 0
-1226 1227 0
-2455 2458 0
62 1071 0
320 1595 0
-2525 172 2527 0
-977 57 979 0
-1364 85 1366 0
231 1028 0
-1496 435 1498 0
-2445 326 2446 0
-2598 -177 2600 0
-448 447 0
217 3052 0
-2109 347 2110 0
-2722 2723 0
-2928 -378 0
-511 512 0
-2069 -138 2070 0
-1278 1279 0
-593 -308 0
-1113 1117 0
-1909 128 1911 0
-1687 -385 1688 0
-1357 -263 1358 0
-115 1801 0
-578 579 0
-116 115 0
-1345 1346 0
-189 2791 0
-212 3036 0
-70 1170 0
57 982 0
81 1339 0
-1600 -102 1602 0
-703 705 0
-1185 1190 0
-2194 2195 0
-1490 1493 0
-2240 -258 2241 0
-1471 399 1473 0
-1232 1236 0
-2199 2201 0
-1368 1375 0
-288 287 0
204 2964 0
190 2800 0
-946 55 948 0
-1294 1297 0
130 1968 0
-832 833 0
-510 -8 512 0
-2324 -335 2325 0
40 762 0
-3028 3029 0
-833 837 0
-1778 115 1780 0
-1599 1600 0
61 1050 0
-2979 -204 2981 0
-1125 436 0
-2848 2852 0
-2629 2630 0
-1805 -370 0
-1967 1968 0
-1229 -318 0
-2813 -279 2814 0
297 1569 0
-422 421 0
-987 383 0
-390 2359 0
-1770 -255 0
-2512 2518 0
-1752 -238 0
-2309 156 2311 0
-204 2980 0
-485 486 0
-399 1492 0
-967 971 0
-2516 2520 0
-2759 2762 0
-838 -420 0
-1716 -423 0
-2206 238 0
-414 1305 0
-567 568 0
-2450 -167 2452 0
-1723 448 1724 0
-90 89 0
-1319 1320 0
-123 1898 0
-2179 2182 0
219 3059 0
-978 57 980 0
-146 2180 0
-2796 -261 0
-2178 -403 2179 0
-601 324 0
-3127 393 0
-3131 3132 0
-2367 425 2369 0
-2646 2652 0
-1459 1461 0
-3018 -210 3019 0
-1053 333 1054 0
-2227 258 2229 0
-1954 -129 1956 0
-1926 1931 0
-2095 -322 0
-615 24 617 0
-403 -129 0
-396 813 0
-1438 -345 0
-2261 -151 2263 0
222 3077 0
-2795 -260 2796 0
-835 -419 0
-2129 2137 0
-806 807 0
-129 1958 0
-2135 373 0
-3071 220 3073 0
159 2361 0
-2298 2301 0
-1245 356 0
-869 872 0
-985 381 986 0
-1836 1837 0
-173 2561 0
-3057 219 0
-1562 99 1564 0
-155 2322 0
-1938 1947 0
-2891 -198 2892 0
-2985 -305 2986 0
-2204 2205 0
-1903 1904 0
-1559 -275 1560 0
-2485 2488 0
-37 742 0
-503 8 504 0
-459 460 0
-2853 2856 0
-821 419 823 0
-1521 -243 1523 0
-2795 2797 0
-323 -53 0
-2302 -303 0
-2312 335 2314 0
-2389 452 0
-1324 233 1326 0
-1411 -307 1412 0
-64 63 0
-1833 1838 0
-1668 1676 0
-2263 -152 2265 0
-2393 454 0
-2660 -181 2662 0
-1548 -98 1550 0
-184 183 0
-2920 2923 0
-666 668 0
-2432 -292 0
-3105 3106 0
-1433 1435 0
-2737 186 2739 0
-2745 416 0
-373 -157 0
-729 733 0
-1029 233 1030 0
-2739 187 2741 0
-2666 -338 0
-2287 301 2288 0
-272 0
-3081 -221 3083 0
-976 977 0
-259 -163 0
-2525 2526 0
-10 541 0
-1500 1502 0
-496 -6 497 0
-673 -32 0
-2025 2031 0
-923 315 924 0
-2710 186 2712 0
-419 -31 0
-1136 253 1138 0
-2218 -239 2219 0
-1039 -234 0
-958 355 959 0
-145 2194 0
-1667 107 1669 0
-1810 1811 0
-1052 332 1053 0
-677 -434 0
-2577 2578 0
-2343 389 2345 0
-2636 -309 2637 0
-841 -421 0
-3052 218 0
-1168 1170 0
-1102 -64 1104 0
-2397 2401 0
-267 -149 0
-2840 -304 2841 0
-220 3080 0
-2262 -151 2264 0
-1087 65 1089 0
-1231 1235 0
-626 -26 628 0
-1293 1296 0
-2331 -157 0
193 2845 0
-2837 -303 2838 0
-1864 -277 0
-2002 2004 0
133 2013 0
-2189 440 2191 0
-735 742 0
-171 2541 0
-1466 93 1468 0
-515 516 0
-656 410 658 0
-3012 3013 0
-2365 2366 0
-354 353 0
-2319 -155 2321 0
-1603 -319 1605 0
-2671 -337 2672 0
-38 37 0
-387 -117 0
-2994 330 0
-1243 355 1245 0
-499 6 501 0
-1271 77 1273 0
-2312 2313 0
-526 -10 0
-1665 1666 0
-748 -283 749 0
-2027 267 0
-379 646 0
-3079 3080 0
-1107 1112 0
-2714 2720 0
-564 -410 0
-645 648 0
-2252 2256 0
77 78 79 80 413 414 415 416 0
-203 2979 0
-3017 -351 0
-1548 1554 0
-950 951 0
-154 2319 0
-1937 128 1939 0
-2499 2500 0
-2929 200 2931 0
-20 592 0
-2224 150 2226 0
-2944 -202 2945 0
-86 1406 0
-1537 1541 0
-2470 348 2472 0
-1403 309 0
135 2048 0
-560 -14 562 0
-292 291 0
-1161 273 1163 0
-3106 225 3108 0
-1722 448 0
-1422 343 1424 0
-2902 200 2904 0
-3011 352 0
-3055 218 3057 0
-1200 1203 0
-3126 393 3128 0
-738 739 0
-1439 -345 1440 0
-2006 -449 2008 0
206 2988 0
-1859 -275 1861 0
-2305 -304 0
-213 3041 0
-1499 436 1500 0
-551 13 0
-500 503 0
-2926 -376 2927 0
-1601 -102 1603 0
-419 842 0
-674 -431 0
-3059 3061 0
-1135 253 1137 0
-1313 447 1314 0
-3001 3002 0
-2609 -269 2610 0
215 3050 0
-1129 -434 1131 0
-2339 2340 0
-328 327 0
-1624 336 0
-204 0
-2498 373 2500 0
-12 11 0
-890 52 891 0
-857 858 0
-2810 2812 0
-1035 -232 0
-1655 -105 1657 0
174 2537 0
-903 -293 905 0
-1644 1646 0
-982 58 983 0
-1386 1389 0
183 2707 0
-1342 84 1344 0
145 2186 0
-3047 216 0
-475 -3 0
153 2306 0
-2199 -441 0
-3013 3018 0
-1845 -438 0
-2456 -326 0
-1327 234 1328 0
-1887 -299 1889 0
-744 748 0
-1711 1713 0
-987 990 0
-2524 -376 0
-822 828 0
-2051 2059 0
-525 526 0
-2310 156 2312 0
-991 992 0
-295 -59 0
-1112 1116 0
-2126 142 2128 0
-714 -252 716 0
-142 2142 0
-2603 2606 0
-1516 245 0
-2141 2142 0
-960 -54 962 0
-712 713 0
-2270 -278 2271 0
-2126 2127 0
-95 1520 0
13 565 0
-2239 -258 0
-68 1165 0
-474 477 0
140 2097 0
-413 -65 0
-659 660 0
-1812 120 1814 0
161 2385 0
-1096 398 1097 0
-1933 -359 1934 0
-2975 2976 0
-1071 63 1073 0
-1464 -370 0
-1246 1250 0
-302 301 0
-1952 -128 1954 0
-1308 1311 0
-149 2236 0
-2611 178 2613 0
-2260 2261 0
-1613 1614 0
-1623 335 1624 0
65 1118 0
-632 379 634 0
-367 1461 0
-2948 427 2950 0
73 1238 0
218 3053 0
-91 1480 0
-19 602 0
-850 445 0
-1155 70 1157 0
-1680 1681 0
-898 899 0
-1034 1038 0
-436 435 0
-1273 78 1275 0
-682 230 683 0
-646 -380 647 0
-2105 347 0
-2267 2271 0
-499 500 0
-4 479 0
-2048 2049 0
-183 2722 0
-2815 2816 0
-990 384 0
-785 789 0
-2635 2639 0
-273 -83 0
196 2876 0
-1148 1151 0
-2115 2116 0
-1333 1334 0
-686 687 0
179 2643 0
-90 1435 0
-766 -38 768 0
-1361 -265 1362 0
-1453 1454 0
-2178 2181 0
-153 2318 0
-2702 2706 0
-1297 -384 1298 0
-2850 327 0
-2594 269 2595 0
-633 634 0
-2240 2242 0
-1458 1460 0
-1536 1540 0
-2949 2950 0
-339 -195 0
-1708 -109 1710 0
-97 1553 0
-1520 1521 0
-3082 -222 3084 0
-1214 74 1215 0
-972 -353 973 0
-276 275 0
-2267 -278 0
-395 812 0
-2788 261 2790 0
-2709 185 2711 0
-427 -187 0
-1475 94 1476 0
-1467 1468 0
-3074 3076 0
-3016 3017 0
-2811 -192 2812 0
-1587 1588 0
-2621 310 2622 0
-2770 454 0
-1717 -423 1718 0
-2134 372 0
166 2434 0
-486 293 0
-1448 368 1450 0
-2490 -348 2491 0
-2617 2618 0
-1592 1594 0
-2774 456 0
-2803 192 2805 0
-1642 105 1644 0
-1190 298 0
-134 2034 0
-2648 337 2650 0
-2487 -347 2488 0
-410 409 0
-1991 -423 1992 0
-127 1929 0
-485 6 0
-158 2350 0
-1755 113 1757 0
-473 474 0
-955 959 0
-2022 2023 0
-2504 2508 0
-2019 2028 0
-3096 -222 3098 0
-1188 296 1189 0
-2789 2790 0
-272 1174 0
-1465 92 1467 0
-111 1765 0
-3052 3053 0
-1858 -122 1860 0
-1143 -68 1145 0
-2467 170 2469 0
-657 410 659 0
-1460 -368 0
-96 1521 0
-540 541 0
-2089 2090 0
-78 77 0
-2070 -287 2071 0
-1307 1308 0
-148 2233 0
-1385 1388 0
-2627 -178 2629 0
-1327 1329 0
-2934 2937 0
-1272 77 1274 0
-2692 2699 0
-3013 -209 3015 0
-2152 2155 0
-2782 -456 0
-665 667 0
-2696 2701 0
-2156 2157 0
-1432 1434 0
-415 2764 0
-379 -23 0
-2034 2039 0
-2029 265 2030 0
-1194 1198 0
-250 249 0
-255 -95 0
-1757 1758 0
-159 2353 0
11 549 0
27 0
105 1645 0
-141 2141 0
-1499 1501 0
-3006 3010 0
-1257 -76 1259 0
-2681 363 0
-1441 1442 0
-2568 240 0
-1515 244 0
-361 -141 0
-1160 272 1162 0
-92 1481 0
-917 54 919 0
-1261 1265 0
-31 673 0
-1652 360 0
-2901 199 2903 0
-1566 1568 0
-1325 233 0
-1162 1163 0
189 2783 0
-785 342 787 0
-1319 -446 1321 0
-924 927 0
-384 383 0
-1167 1169 0
-1860 -275 1862 0
-1691 1694 0
-219 3079 0
-2620 309 2621 0
-2074 2077 0
-1267 -356 1268 0
-2582 177 2584 0
-1292 1295 0
-2841 2844 0
-3026 3027 0
-1354 1356 0
-1 461 0
-1589 102 1590 0
-2063 2064 0
-52 51 0
-1833 437 1835 0
-172 171 0
-43 810 0
-870 50 871 0
-968 -56 969 0
-556 410 0
211 3026 0
-118 1804 0
243 1517 0
-2130 2131 0
-764 315 765 0
-1187 295 1188 0
-2699 -184 2700 0
-491 -5 493 0
-1662 -359 1664 0
-964 965 0
-3070 -292 0
49 870 0
252 704 0
-1343 84 1345 0
-2513 2514 0
-1731 1732 0
-1333 -233 1335 0
-2002 451 0
-2888 -197 2890 0
-530 -342 0
-768 769 0
379 637 0
-1579 -297 1581 0
-306 305 0
-1828 -402 1829 0
-2437 168 2439 0
103 1641 0
-1038 -233 1039 0
-2322 2324 0
-2565 2566 0
-160 0
-1136 1137 0
-1618 1622 0
-2142 2147 0
-969 -353 970 0
-33 706 0
-1492 -400 1493 0
-2098 141 2100 0
-2752 2753 0
-401 1828 0
-121 1882 0
-1291 -78 1292 0
-2639 -309 2640 0
-1103 -65 1105 0
-1575 -99 1577 0
-2858 329 2859 0
-2991 208 2992 0
-1166 -69 0
-1328 1330 0
-2113 -141 2115 0
-778 -313 779 0
-1591 319 1592 0
-1270 1271 0
-905 -294 0
-2503 374 2504 0
-2964 269 2966 0
-1905 126 1907 0
-2832 -193 2834 0
-26 25 0
-2358 2360 0
-271 -35 0
-146 145 0
-1653 1654 0
-2420 2421 0
-63 1082 0
-1527 -245 1528 0
-951 354 0
-2075 -288 2076 0
-893 295 0
-633 379 635 0
-2018 134 2020 0
-1058 -62 1060 0
-2949 427 2951 0
-126 1901 0
-2182 2185 0
-2367 2368 0
-1462 1464 0
-1705 1706 0
-313 -19 0
198 2900 0
-2232 -148 2234 0
-1793 -116 1794 0
-1976 425 0
-758 762 0
-3102 -224 3103 0
-2065 -137 2067 0
-1820 -118 1822 0
-280 279 0
-1532 98 1534 0
-2209 239 2210 0
-824 421 0
-2365 162 2367 0
42 801 0
-2680 2685 0
-323 -115 0
237 2208 0
-2538 406 2539 0
-259 2795 0
-1433 -90 1434 0
-597 22 599 0
-1498 1500 0
-120 1826 0
-2567 239 0
-2989 2990 0
-1359 -264 1360 0
51 890 0
-141 2117 0
-573 16 0
-1644 106 0
-612 24 0
-1244 1245 0
-258 2242 0
-181 2691 0
-1565 1567 0
-1760 256 1762 0
213 3032 0
-1627 1628 0
-2486 -348 0
-2856 2859 0
-845 846 0
-331 1067 0
-477 -4 478 0
-2394 2395 0
-1230 -74 1231 0
-1690 1693 0
-1389 1392 0
-2968 -269 2970 0
-2734 -392 2735 0
319 1593 0
-2214 2218 0
-1587 101 0
-2341 2342 0
-2923 2926 0
-1209 1215 0
-263 1359 0
-669 671 0
-2012 -452 0
-1436 1438 0
-450 449 0
-1854 276 1855 0
-1992 -424 1993 0
-664 -32 0
-1831 -404 0
-562 -409 564 0
-932 -54 934 0
-513 514 0
-1195 -72 0
-1021 -414 0
-142 2120 0
-698 36 699 0
-1277 384 1279 0
-1746 1747 0
-218 3064 0
-1606 -321 1608 0
-680 229 0
-1176 70 1178 0
-1347 1348 0
-589 -20 0
-88 1430 0
-472 272 0
52 915 0
163 0
-1285 -76 1287 0
-1813 401 1815 0
-1171 1173 0
-2963 2964 0
-2762 -416 2763 0
-752 753 0
-1415 -309 1416 0
454 2773 0
-2321 2323 0
-1539 274 1540 0
-1296 1299 0
-423 -119 0
-834 835 0
-3068 -291 3070 0
-3030 3031 0
447 1723 0
-1601 1602 0
-2560 442 0
-819 820 0
-2908 2913 0
-3094 339 3095 0
-1066 -333 0
-1480 -92 1482 0
-64 1103 0
-1179 1187 0
-1673 386 0
16 574 0
-2797 -261 2798 0
58 985 0
-1165 -69 1167 0
-2876 197 2878 0
-886 887 0
-131 1988 0
-2435 2436 0
-2492 -350 0
-424 423 0
-2562 -441 2564 0
-1435 -343 1436 0
-2255 2259 0
-769 775 0
-1287 -77 1289 0
-810 -44 0
-831 836 0
196 2854 0
-3027 3032 0
-481 4 483 0
-2692 -183 2694 0
-773 777 0
-1893 -301 0
-152 2292 0
-1321 1322 0
-674 675 0
-756 313 0
-2684 363 2685 0
-2601 -267 0
-1523 -244 1525 0
98 1541 0
-2266 -277 0
-961 968 0
-2960 -429 0
-2510 2517 0
-1363 84 1365 0
-309 -153 0
-1413 -308 1414 0
-2233 2236 0
-965 970 0
-2908 377 0
-341 797 0
-264 263 0
-3022 211 0
-1455 1456 0
-808 809 0
-301 2303 0
-2464 169 2466 0
-2175 -146 0
-1575 1576 0
-793 794 0
-2300 2303 0
-1017 -412 0
89 1441 0
-2303 -302 2304 0
-2634 -310 0
-1176 1177 0
-875 876 0
-2644 2651 0
-72 1200 0
-876 880 0
-2137 371 2138 0
21 610 0
-279 -177 0
-398 397 0
-2245 2252 0
-2860 -194 2862 0
-755 313 757 0
-1186 72 1187 0
-2973 205 2975 0
-1647 1649 0
-59 1031 0
154 2307 0
-1311 446 1312 0
-1009 412 1011 0
-681 230 0
-461 462 0
-2777 2778 0
-1774 -257 0
-2650 338 0
-1104 -65 1106 0
-3031 417 0
-34 687 0
-1530 1537 0
-883 890 0
-178 2628 0
128 1917 0
-851 445 852 0
-2600 -178 0
-1838 438 1839 0
-66 65 0
-889 294 0
-186 185 0
-2922 2925 0
223 3093 0
-383 1297 0
-1213 318 0
-1435 1437 0
-42 809 0
-73 1230 0
-2606 2609 0
-1135 1140 0
-421 1715 0
-614 354 0
-1775 -257 1776 0
-1915 360 1916 0
-2673 -339 2674 0
-55 991 0
-1482 1483 0
-1069 -334 0
-2207 2210 0
-1147 -254 0
-238 237 0
-1880 301 1881 0
-782 783 0
-1680 -106 1682 0
-17 586 0
-2501 172 2502 0
-709 -36 711 0
-2548 -406 0
-1549 1550 0
-3056 3059 0
-1407 -87 0
-1249 1253 0
-1569 1571 0
-506 314 0
-2373 -160 2375 0
-2619 180 2620 0
-2995 -206 2997 0
-87 1429 0
124 1878 0
-471 271 0
-2579 2580 0
132 1998 0
-2824 305 0
-944 54 946 0
56 956 0
-1632 1636 0
74 1239 0
153 2286 0
-1241 76 1243 0
-350 2897 0
-970 974 0
-90 0
-372 371 0
-596 21 598 0
-2226 257 2228 0
-1728 -447 1730 0
-2340 160 2342 0
-1984 1985 0
-1380 -85 1382 0
-2771 2773 0
-283 -69 0
-517 518 0
-2008 -450 2010 0
-3014 3015 0
-2713 2714 0
-1459 -367 1460 0
-1861 -276 1863 0
24 613 0
-2533 2537 0
-40 39 0
-540 -10 542 0
-160 2374 0
-160 159 0
-3081 3082 0
-1409 1411 0
-659 411 0
-1351 1352 0
-569 570 0
-956 353 957 0
-2564 -442 0
-2254 2258 0
-1713 -421 1714 0
-113 1789 0
-2885 2886 0
-1970 132 1972 0
-710 -36 712 0
-2181 2184 0
-863 244 0
-2677 183 2679 0
-2429 -289 2430 0
-1719 1720 0
-2301 2304 0
-1461 1463 0
-2149 -372 0
-707 -35 709 0
-756 757 0
-1539 1543 0
-1634 -333 1635 0
-294 293 0
-2315 337 2317 0
-775 -313 776 0
-1175 -274 0
-767 -39 769 0
-1202 1205 0
-1932 -361 0
-473 -2 475 0
-2806 280 0
-346 345 0
-823 420 0
-1500 437 0
-1191 1192 0
-2879 198 2881 0
-949 954 0
-44 831 0
-1085 -368 0
-2498 2503 0
-3076 311 0
-1725 449 1726 0
-970 -354 971 0
-1089 1095 0
-1720 1723 0
-466 3 468 0
-1258 1259 0
-2807 2808 0
-611 23 0
-14 13 0
29 649 0
108 1696 0
-40 778 0
-3049 242 0
-1020 -413 1021 0
-134 133 0
-1446 367 1448 0
-343 -41 0
-859 860 0
-2628 2635 0
-2812 2814 0
-53 960 0
-1809 119 1811 0
-1325 1326 0
-2632 2637 0
-1908 1914 0
-2225 257 2227 0
-1920 362 0
-2147 -144 2148 0
-1388 1391 0
-2506 374 2507 0
-683 685 0
-1912 1916 0
-2015 246 0
-2174 -146 2176 0
-2700 -363 2701 0
-2970 -270 0
-668 670 0
-2076 -289 2077 0
-3010 351 3011 0
-371 -127 0
-721 38 723 0
-899 -51 901 0
-3002 -330 0
-268 267 0
-608 -323 609 0
-2727 -391 0
12 550 0
-993 994 0
-888 293 0
-2188 439 2190 0
-772 -313 0
-1126 -66 1128 0
-1223 -73 1225 0
-505 313 506 0
81 1323 0
-2159 146 2161 0
-2628 -179 2630 0
-2359 -391 2360 0
-2527 2528 0
-217 3063 0
-110 1728 0
-2605 2608 0
-1418 89 1420 0
-613 353 0
-2647 2648 0
-1944 388 1946 0
-1642 1645 0
-2425 2431 0
446 1313 0
-2409 2412 0
210 3022 0
-938 943 0
190 2784 0
-2603 -267 2604 0
-90 1454 0
-2472 2477 0
-2032 268 0
-2943 -407 0
-249 -175 0
-165 2448 0
-465 466 0
-812 -396 0
-2554 -406 2555 0
-2781 2782 0
-66 1114 0
-1360 -265 0
-660 412 0
-337 -167 0
-2463 168 2465 0
-1295 1298 0
-2262 2263 0
54 923 0
-108 107 0
-1615 1616 0
-590 592 0
-1619 334 1620 0
-1357 1359 0
-2347 391 0
-1702 422 1704 0
-2758 -188 2759 0
-1711 -110 1712 0
-663 -31 0
30 650 0
-567 431 0
-463 -229 0
-66 1127 0
-502 8 0
-1682 1683 0
-2785 259 2787 0
-900 901 0
-1283 385 1284 0
-1667 1668 0
-1787 1788 0
-3069 -291 0
-2269 2273 0
227 228 429 430 0
-242 241 0
-2528 174 2530 0
-3135 -393 3136 0
-1855 277 0
-1792 1794 0
-1808 118 1810 0
-136 2064 0
-2646 182 2648 0
-2800 191 2802 0
-2207 239 0
-2744 416 2746 0
-1554 1558 0
-2843 -305 2844 0
-1737 235 1739 0
-1412 -308 0
-1335 1336 0
-688 689 0
-2321 -156 0
-2420 -165 2422 0
-1900 -126 0
-2884 351 2886 0
-385 -91 0
-1801 1802 0
-88 0
-2793 -259 0
-1921 1922 0
-1610 103 1612 0
-2951 2952 0
-2025 266 2027 0
-1522 1523 0
88 1418 0
-2204 237 2206 0
-1561 98 1563 0
-940 -315 941 0
-311 -193 0
-1469 1470 0
-3076 3078 0
-1872 299 0
-1943 387 1945 0
-904 -293 0
-479 -271 480 0
-1913 128 1914 0
-343 1437 0
-415 -129 0
7 503 0
-1594 1596 0
-2721 394 0
109 1719 0
-2118 2121 0
-790 344 0
-174 2562 0
-1451 369 0
-1472 1478 0
-367 -75 0
-2080 139 2082 0
-412 411 0
-653 32 655 0
-1641 1642 0
-2640 -310 2641 0
-809 -43 0
-2934 407 0
-1076 367 0
-1339 82 1341 0
-2647 182 2649 0
-2486 2489 0
-1321 -447 0
-487 6 488 0
-475 476 0
-2114 -142 2116 0
-2024 2025 0
-2341 160 2343 0
185 2737 0
-1481 1486 0
-1388 -284 1389 0
-2712 391 2714 0
-1844 1848 0
-761 765 0
-1703 422 1705 0
-2433 166 2435 0
-542 543 0
-33 686 0
-2946 -408 0
-2091 2092 0
-1309 1310 0
-177 2627 0
-1068 -333 1069 0
-1282 384 1283 0
-2616 2621 0
-2040 -265 2041 0
-2784 259 2786 0
-197 2914 0
-3034 418 0
-667 669 0
-421 -93 0
-2436 2444 0
-961 -55 963 0
-2158 2159 0
-2902 2910 0
-2577 -240 2579 0
-1958 1961 0
-2440 2446 0
-2963 204 2965 0
-2430 -290 2431 0
-2988 2991 0
-1348 265 1350 0
-1280 78 1281 0
-534 538 0
-2854 327 2855 0
-1443 1444 0
-2033 -134 2035 0
-708 -35 710 0
70 1177 0
-1563 1564 0
-1263 1267 0
-2330 2331 0
22 611 0
-2110 348 0
-2088 2093 0
-2161 403 2163 0
-2408 2411 0
-1753 112 1755 0
-1568 1570 0
-3117 3119 0
-2092 2095 0
195 2875 0
-605 607 0
-2823 304 0
-1304 -414 0
-2741 188 2743 0
-386 385 0
-1581 -298 1583 0
-1867 123 1869 0
-1801 -116 0
209 0
-20 0
-1742 237 1743 0
-599 323 601 0
-3004 3009 0
-845 46 847 0
-751 758 0
-1356 1358 0
-2787 260 2789 0
-2284 302 0
-1982 -130 1984 0
-467 3 469 0
-1650 359 0
-1705 423 0
-2777 -453 2779 0
-2065 2066 0
-84 1379 0
-2832 2833 0
-816 45 818 0
-174 173 0
-759 313 760 0
-1102 1103 0
-1447 367 1449 0
-2652 2656 0
-1165 1168 0
-2132 2133 0
-1408 1410 0
-1641 104 1643 0
-1018 -412 1019 0
-1243 1248 0
-2379 -425 2380 0
-2899 2900 0
-12 558 0
-1797 -286 1798 0
-1840 440 0
85 1393 0
-2195 2198 0
-1904 -326 0
-862 243 0
-147 2211 0
-770 771 0
-308 307 0
-900 -51 902 0
-1918 360 1919 0
-1567 297 1568 0
-2384 -428 0
-2324 2326 0
-734 -36 736 0
-2567 2568 0
-2160 146 2162 0
44 816 0
-1138 1139 0
-2941 -202 2943 0
-222 3097 0
-1419 89 1421 0
-1998 449 2000 0
-2219 -240 0
-360 359 0
168 2464 0
-107 1707 0
-857 -444 859 0
-791 -40 793 0
-2376 2378 0
-2275 -280 0
-2000 450 0
-997 -381 999 0
-1025 1029 0
-2717 186 2718 0
-143 2171 0
215 3047 0
-731 282 732 0
-1272 1273 0
-2457 -325 2458 0
-490 491 0
-607 -323 0
-2616 309 2618 0
-1796 1798 0
184 2687 0
-28 27 0
-180 2639 0
-610 611 0
-2060 288 2061 0
-148 147 0
-704 253 705 0
-1211 317 1213 0
-2051 138 2053 0
-1339 1340 0
-1477 400 1478 0
-557 558 0
-1338 -236 0
-1081 1083 0
-1545 -96 1547 0
-2466 2474 0
-2893 2895 0
-1707 1708 0
-2607 -269 0
-200 2939 0
-682 684 0
-2397 -452 2399 0
-2173 2174 0
-162 161 0
-2776 -453 2778 0
-2940 2941 0
-1216 318 1217 0
-282 281 0
-2294 2298 0
-1903 -325 0
-605 -22 0
-873 -48 875 0
-2541 2542 0
-2549 -174 2550 0
107 1675 0
-494 -6 0
142 2127 0
-811 812 0
-1247 355 1248 0
-2661 2662 0
90 1442 0
-2231 260 0
-2990 208 0
-81 1331 0
-2633 -309 0
-334 333 0
-776 -314 777 0
-307 -59 0
-1707 -108 1709 0
-2856 329 0
-3132 3134 0
-1611 103 1613 0
-2152 -373 0
-3044 214 0
-1335 -234 1337 0
-89 1453 0
66 1098 0
-575 18 0
-1708 1711 0
-2675 2676 0
-1770 1772 0
-2013 2014 0
-2 1 0
-2277 153 2279 0
-1869 124 1871 0
-584 585 0
-2909 200 2910 0
-122 121 0
-3004 209 3006 0
96 1512 0
-331 -53 0
-847 848 0
-359 -115 0
123 1874 0
-2396 2397 0
-2130 144 2132 0
-2521 -373 2522 0
-589 591 0
-973 -354 974 0
-2678 2684 0
-2862 2863 0
-587 -19 589 0
-2080 2081 0
-836 -46 837 0
-2248 152 2250 0
-2898 -352 0
-651 652 0
-2255 279 0
-60 1056 0
-2925 2928 0
-3001 -329 0
-1496 1499 0
-2463 2464 0
-1438 1440 0
-491 496 0
-2448 2449 0
-136 135 0
-2361 160 2363 0
-718 719 0
-550 13 552 0
-256 255 0
-2268 2272 0
-267 -163 0
-1748 1749 0
251 702 0
-1476 399 1477 0
-2052 138 2054 0
-2713 391 2715 0
-2515 2516 0
-1868 1869 0
-1086 1087 0
-1167 -70 0
-135 2063 0
-2423 -289 2425 0
-108 1708 0
-11 557 0
-906 910 0
-399 -77 0
-2210 240 0
-409 669 0
-29 661 0
-425 2381 0
-1635 1639 0
211 0
-1998 2001 0
-2649 2650 0
-286 1799 0
-2769 2770 0
-192 2831 0
-636 639 0
-96 95 0
-821 822 0
-2753 -187 2755 0
-336 2328 0
-1885 1891 0
-1287 1288 0
-2054 2055 0
2 458 0
-1999 449 0
-888 889 0
-1226 -74 1228 0
-2117 2120 0
-2153 -372 2154 0
-2437 2438 0
-2106 142 2107 0
-1412 1414 0
-1655 1656 0
-1356 -263 0
-2422 2423 0
-829 422 0
-2419 2428 0
-110 109 0
-2955 -202 2957 0
-230 229 0
-2807 -190 2809 0
-1899 -125 0
-697 699 0
-2937 408 0
-303 -165 0
-2289 303 2290 0
-2155 -374 0
-775 779 0
-3066 -220 3068 0
-1983 -131 1985 0
-1535 273 0
-1193 -71 1195 0
-204 2968 0
-837 840 0
-3 477 0
-1323 1324 0
-1789 1790 0
-817 45 819 0
-1909 1910 0
-199 2938 0
91 1465 0
53 944 0
-2054 287 2056 0
-3 490 0
-1780 116 1782 0
-1745 -235 1747 0
-1628 -104 1630 0
-3099 -224 3101 0
-3112 366 0
-2039 2042 0
-2822 2828 0
110 1720 0
-2313 336 2315 0
-2989 207 0
-1577 1578 0
-552 554 0
-2954 430 0
-795 796 0
-2736 -394 0
-826 419 827 0
-2584 2592 0
-781 -316 0
-3111 3112 0
-2480 -169 2482 0
-113 1769 0
-1794 -285 0
-198 2893 0
-927 317 928 0
-1324 1327 0
176 2582 0
-1326 234 0
-619 621 0
-3116 3118 0
-862 863 0
202 2948 0
-400 399 0
-1629 1630 0
126 1906 0
450 2003 0
-50 899 0
-174 2553 0
-1769 1771 0
-204 203 0
-998 -382 1000 0
-929 930 0
-2478 2479 0
-1089 66 1091 0
-3113 -224 3115 0
-509 -7 511 0
-1816 1817 0
-226 3130 0
-1763 1764 0
-495 -293 0
-237 2217 0
-2763 -417 0
-874 879 0
-2666 2670 0
-44 811 0
-2655 337 2656 0
-745 -283 0
211 3023 0
-1121 1123 0
-2652 337 2653 0
-2875 196 2877 0
-138 2088 0
-169 2509 0
-1484 1485 0
104 1621 0
147 2220 0
-51 929 0
-719 37 721 0
298 1571 0
-1302 -80 0
-1466 1475 0
-243 -59 0
75 1270 0
-784 785 0
-1509 -437 0
-484 6 486 0
-1310 446 0
-1551 1552 0
-526 528 0
-1715 -422 1716 0
-2318 2319 0
-259 -175 0
-10 529 0
-1639 -335 1640 0
-3047 3048 0
-2323 2325 0
-2256 277 2257 0
-780 -315 781 0
-1779 115 1781 0
-1847 -438 1848 0
-1084 -367 1085 0
-2385 2386 0
-374 373 0
-1649 358 1650 0
-1603 1604 0
-2915 -199 2917 0
-527 -10 528 0
-806 -331 0
-412 1020 0
-2205 2209 0
-1818 403 0
-2282 301 2284 0
3 481 0
-1986 1987 0
-860 -446 0
-1336 -235 1338 0
-191 2830 0
-2452 2453 0
-580 19 582 0
-287 2075 0
-618 26 0
-1693 -387 1694 0
-1626 1633 0
-1765 -112 1767 0
-256 1775 0
-2913 378 0
-1737 1738 0
-431 -27 0
-1090 1091 0
-1873 1877 0
-913 -296 0
-2398 -452 0
-2320 -155 0
-1514 244 1516 0
-571 572 0
-2942 -202 0
-1696 109 1698 0
-2887 2888 0
-2434 167 2436 0
213 0
-1709 -109 0
-1088 65 1090 0
-915 920 0
-2383 -427 2384 0
152 2256 0
-2622 311 0
-1008 411 1010 0
-2526 173 2528 0
-2208 238 2209 0
-547 -379 548 0
-203 2967 0
-1960 -388 0
-2705 -365 2706 0
-577 282 0
455 0
-728 282 729 0
225 3121 0
-1595 321 1596 0
-3017 3020 0
-185 2728 0
-1045 1052 0
-2750 417 2751 0
-1650 1652 0
173 2557 0
-810 811 0
-2230 259 0
-348 347 0
-718 36 720 0
-2379 2381 0
-263 -67 0
63 1086 0
-1193 1194 0
-986 382 987 0
-1659 1660 0
-877 878 0
-2756 -188 0
-2426 2427 0
-1850 122 1852 0
-2103 346 2105 0
-335 -115 0
-1017 1019 0
-1260 1261 0
-2489 2492 0
-2809 2810 0
-16 15 0
-598 599 0
-2067 -138 0
-1518 245 1519 0
-703 253 0
-1654 -105 1656 0
141 2106 0
-2880 349 2882 0
-1679 388 0
-1207 73 1209 0
-2767 188 2769 0
-49 898 0
-2090 -140 2092 0
-1914 1918 0
-579 19 581 0
-1588 102 0
-2829 306 0
-670 672 0
-2812 -279 0
-2952 429 2954 0
-1437 1439 0
-2339 159 2341 0
-604 -21 0
-195 2887 0
-536 379 0
-2744 2750 0
26 0
31 32 431 432 433 434 0
-270 269 0
-1046 331 1048 0
-2780 -455 2782 0
191 2815 0
-1277 1283 0
101 1609 0
-1562 1565 0
-2529 2530 0
-2624 310 2625 0
-3041 -214 3042 0
-3067 -220 3069 0
-2169 405 2170 0
-771 -313 773 0
-1966 -390 0
-137 2087 0
-2352 -160 0
-322 321 0
-2411 2414 0
-2353 2355 0
-1030 234 0
-2596 2597 0
-649 30 651 0
-1428 346 0
-2982 -206 0
-383 -63 0
-467 468 0
-2663 2664 0
281 0
13 553 0
-1781 116 1783 0
-2783 2784 0
-2496 172 2498 0
-2965 269 0
-2314 336 2316 0
-932 940 0
-1359 1361 0
-831 -45 833 0
-1301 1302 0
-102 1626 0
-926 316 927 0
-1671 385 1673 0
-2088 -139 2090 0
-794 -342 796 0
-1946 1951 0
-2196 -439 0
-1669 1670 0
-1203 -296 1204 0
-1455 -91 0
-82 1352 0
67 1152 0
-1411 1413 0
29 631 0
-1015 -411 1017 0
-124 123 0
-1772 -256 0
-2271 2275 0
-706 707 0
-3038 3042 0
-244 243 0
-2980 2983 0
-19 590 0
-1955 1959 0
167 2443 0
-1556 1560 0
-2863 2871 0
-624 -25 626 0
-1483 -94 1485 0
-345 2123 0
-3090 3094 0
-836 839 0
-296 295 0
-1803 1804 0
-2165 405 0
-1469 94 1471 0
-1923 1924 0
-3119 -365 3120 0
-1681 1686 0
-3115 -225 0
-2804 279 2806 0
-2505 373 2506 0
-1685 1688 0
-271 -49 0
-357 -89 0
-1208 1209 0
-1440 -346 0
-83 1355 0
-602 -20 604 0
-720 37 722 0
-1975 1976 0
-1001 -58 1002 0
-910 -293 911 0
-963 -56 965 0
-84 83 0
-339 -207 0
-809 810 0
-887 293 889 0
-803 332 0
-2269 -277 2270 0
-1182 295 1184 0
-79 1302 0
-253 1149 0
-2120 2123 0
-52 910 0
-1095 1099 0
-244 -243 -48 -47 0
444 0
-115 1793 0
-1345 263 1347 0
215 0
-1337 -235 0
-1485 -399 0
-1504 -435 1506 0
-1023 231 1025 0
-2642 -312 0
-1643 1644 0
-2992 329 0
-618 620 0
-2742 415 2744 0
-2984 -305 0
-2916 -199 2918 0
-98 97 0
-2254 278 2255 0
-218 217 0
-2458 -326 2459 0
-79 1315 0
-2613 179 2615 0
-1929 1933 0
-2712 2719 0
435 1499 0
-1525 1528 0
-1225 1231 0
-291 -177 0
-1048 1049 0
-1902 -324 0
-2023 265 2025 0
-2156 144 2158 0
-2584 178 2586 0
-2559 2560 0
-1777 1778 0
39 758 0
-2921 -375 2922 0
-2530 405 2532 0
-684 231 685 0
-1645 106 1646 0
-1835 438 1837 0
-1960 1963 0
-1990 -424 0
-2611 2612 0
-1182 1183 0
-2180 -403 2181 0
-317 -59 0
-1503 -94 1505 0
-896 295 897 0
-1668 108 1670 0
-2527 173 2529 0
-1366 86 1368 0
-2551 2555 0
-58 57 0
-3077 311 3078 0
-2332 2333 0
-2368 426 2370 0
-2555 -407 2556 0
-1309 445 0
-20 19 0
-1799 -287 1800 0
-2645 181 2647 0
-2614 2620 0
-8 524 0
-765 316 0
11 537 0
-545 548 0
15 0
-1349 265 0
-1427 345 0
-2434 2443 0
-2618 2622 0
-607 609 0
-1972 1979 0
-2939 2944 0
451 2391 0
-2260 -150 2262 0
-458 229 460 0
-72 71 0
-1409 -88 1410 0
-192 191 0
-1699 1700 0
200 2930 0
181 2651 0
28 0
-1684 1685 0
-981 381 0
-1528 -246 0
-1804 1805 0
-1824 1826 0
-3139 -430 0
-2508 376 0
-2834 2835 0
-1505 -435 1507 0
434 1124 0
-1104 1105 0
-2654 2658 0
-948 56 950 0
-2253 277 2254 0
341 788 0
76 1271 0
-2901 2902 0
-2585 2586 0
-2838 -304 0
-1383 -283 0
-1179 72 1181 0
-2079 2084 0
-2526 2533 0
-2050 137 2052 0
-267 2608 0
-2846 2851 0
-2306 2307 0
-162 2395 0
-3056 219 3058 0
-3031 3034 0
-2957 -427 0
-543 -12 545 0
-839 -419 840 0
-3117 -226 3118 0
-156 2331 0
-2068 2071 0
-3035 3036 0
-1842 -437 1844 0
-2038 -265 0
-2835 2838 0
-2373 2374 0
-859 -445 0
199 2909 0
-362 361 0
-944 945 0
182 2676 0
-1852 275 0
-2403 164 2405 0
-132 1991 0
-1192 -71 1194 0
-2378 2380 0
-2386 451 2388 0
-1673 1674 0
-345 -103 0
-183 2699 0
-2405 165 2407 0
-2835 -303 0
-2660 2667 0
-1716 1718 0
-2738 2747 0
-1358 -264 0
-1596 322 0
-1347 264 1349 0
-492 493 0
-1798 1800 0
-1993 -425 0
-78 1301 0
-2001 450 2002 0
106 1647 0
-1382 -86 0
-1756 114 1758 0
-2265 2270 0
-2460 -326 2461 0
-1078 1079 0
-175 2573 0
-557 -12 559 0
-2131 371 2133 0
-1079 -63 1081 0
-832 -45 834 0
-1454 -91 1456 0
-899 906 0
-1083 1085 0
-2875 2876 0
-2089 -139 2091 0
-1145 1146 0
-1928 1932 0
-903 908 0
100 1586 0
-1146 1150 0
-2938 -200 2940 0
115 116 117 118 369 370 371 372 0
-2175 2176 0
-1372 285 0
-2923 -375 2924 0
-2942 2943 0
-2999 -208 3001 0
-1513 1514 0
-1792 -116 0
-2127 143 2129 0
-1213 1217 0
-2280 2281 0
-1856 277 1857 0
-2277 2286 0
-729 283 0
-36 735 0
-2245 151 2247 0
-2238 -257 2239 0
-1573 -98 1575 0
-1389 -285 0
-813 814 0
-1524 -244 0
-2042 2045 0
64 1087 0
45 845 0
-2830 -192 2832 0
-1769 -114 1770 0
217 0
-2347 2348 0
-1732 -449 1734 0
-336 335 0
-393 -199 0
-1265 -357 0
-2105 2110 0
-3072 3075 0
-1940 1948 0
-2409 166 2410 0
-3134 3136 0
-2410 2413 0
-2241 -259 0
-2352 2354 0
-1867 1874 0
-2772 455 0
-2425 -290 2427 0
-2172 2177 0
-2049 137 2051 0
-2887 -196 2889 0
246 2016 0
-2292 2297 0
-2836 -194 2837 0
-1815 402 1817 0
-828 421 829 0
-1772 1774 0
-93 1503 0
-2015 2016 0
-7 523 0
-1037 -232 1038 0
-1896 -301 1897 0
-1835 1839 0
-1386 -284 0
-695 35 697 0
-964 -56 966 0
-2974 206 2976 0
-591 593 0
99 1565 0
-2864 2865 0
-2082 2083 0
-2698 -364 0
-653 654 0
-2849 2850 0
-2417 292 0
-740 -281 0
-2728 -186 2729 0
212 3024 0
-2588 268 2590 0
-2669 2673 0
-1024 231 1026 0
-2755 -188 2757 0
148 2221 0
-2743 415 2745 0
-2731 2734 0
-720 721 0
-2916 2917 0
-984 382 0
-258 257 0
-2027 2032 0
-3036 -213 3038 0
-1870 1871 0
-2531 405 0
17 0
-965 -353 967 0
-451 2400 0
-772 773 0
-2981 -205 0
-2868 -328 0
-310 309 0
-2399 2402 0
-1962 -388 1963 0
-430 429 0
-1740 237 0
-309 -99 0
-1379 1384 0
-2298 -301 2299 0
-2128 143 2130 0
-415 -145 0
-1222 1223 0
-737 743 0
155 156 157 158 361 362 363 364 0
-2166 146 2167 0
-1557 -273 1558 0
-2756 2757 0
26 621 0
-984 987 0
-167 2478 0
-930 -53 932 0
-2931 201 2933 0
-822 420 824 0
-1367 86 1369 0
-371 2153 0
-2326 -336 2327 0
-1105 1111 0
-1289 1290 0
-68 1144 0
-2056 2057 0
-627 628 0
-2823 2824 0
-1109 1113 0
-1352 1355 0
-1876 1880 0
-2119 2122 0
97 1561 0
-1414 1416 0
-1424 344 1426 0
-1657 1658 0
-2738 187 2740 0
-112 111 0
-694 695 0
-992 1001 0
-737 -38 739 0
-232 231 0
-2019 135 2021 0
-699 701 0
-3074 222 0
-976 56 978 0
-3079 -220 3081 0
-412 0
-1724 449 0
-2201 -442 0
-2523 -375 2524 0
-2957 2958 0
-1486 1489 0
-323 -59 0
-1286 1291 0
-1252 357 1253 0
-385 1692 0
-325 2460 0
-284 283 0
-2131 2138 0
-1911 1912 0
-1487 -399 1488 0
144 2157 0
-2599 -178 2601 0
-511 -8 513 0
-726 38 727 0
-2135 2140 0
-1086 64 1088 0
-2111 -140 2113 0
-168 2457 0
-1736 1741 0
-686 -34 688 0
-2745 2746 0
-825 46 826 0
-139 2111 0
-1308 445 1310 0
117 1808 0
-655 409 657 0
-549 12 551 0
-1289 -78 0
-2041 2044 0
-2392 453 2393 0
-2808 2811 0
-554 556 0
127 1937 0
-257 2240 0
-309 -165 0
-949 353 951 0
-1329 235 1330 0
-153 2297 0
-603 -21 605 0
-500 7 502 0
-679 682 0
-3027 213 3029 0
-2354 -389 0
-128 1953 0
-223 3113 0
-1631 1632 0
-1101 400 0
-2817 193 2819 0
-606 608 0
-2761 -415 2762 0
-1670 1677 0
-86 85 0
-206 205 0
-2272 -277 2273 0
-2053 2060 0
-1678 387 1679 0
207 3003 0
-2820 2827 0
-1881 302 0
-2465 2466 0
-1818 1819 0
192 2816 0
-297 -85 0
102 1610 0
-2582 2591 0
-1823 1825 0
-1765 1766 0
-1118 1119 0
-427 2959 0
-154 2300 0
-3007 210 0
-2132 371 2134 0
-86 1387 0
-2414 2417 0
-2708 185 2710 0
-111 1744 0
-1952 1953 0
-2828 305 2829 0
-1139 255 0
-1590 319 0
-2058 138 2059 0
-148 2212 0
-528 530 0
-2320 2321 0
-199 2920 0
-1695 108 1697 0
2 466 0
-48 874 0
315 926 0
170 2494 0
118 1809 0
-161 2394 0
-2729 -391 2730 0
-2325 2327 0
-1522 -243 1524 0
-2387 2388 0
-1221 320 0
-1605 1606 0
-2099 142 2101 0
-730 281 731 0
-1928 -360 0
-2149 2152 0
-1930 -359 1931 0
-180 179 0
-2661 -181 2663 0
-992 -57 994 0
-1487 1490 0
101 1589 0
276 1856 0
-2212 2217 0
-1749 -237 0
-783 788 0
-2439 2440 0
-725 729 0
-144 2172 0
-167 2454 0
-1163 274 0
-1426 345 1428 0
-787 790 0
-1797 1799 0
-1739 1740 0
-713 -252 715 0
-1092 1093 0
-1571 299 1572 0
50 883 0
36 719 0
-1093 1097 0
-69 1191 0
-200 2923 0
-2157 2166 0
-2099 2107 0
-2975 206 2977 0
-31 665 0
-2119 -346 0
-2575 -239 2577 0
224 3106 0
-1677 386 1678 0
-2161 2168 0
-2889 2890 0
357 1649 0
-839 842 0
-1663 -359 0
261 0
-2573 2574 0
-1811 120 1813 0
-1494 -402 0
-2094 -321 2095 0
-2775 -188 2777 0
93 1495 0
-2693 2694 0
-119 1841 0
-2068 -287 0
-1989 1992 0
-502 504 0
-627 -26 629 0
-2223 150 2225 0
-2834 -194 0
-3037 -213 3039 0
-23 623 0
-2114 2118 0
-2961 -429 2962 0
147 2202 0
-812 813 0
-2361 2362 0
-350 349 0
-407 -185 0
-1579 1580 0
-82 1332 0
-2481 -170 2483 0
-1387 -283 1388 0
-666 -409 0
-840 -420 841 0
-1912 360 0
-1764 258 0
-1491 -401 0
-154 153 0
-1661 1662 0
-1274 78 1276 0
-619 26 620 0
-866 49 868 0
-999 1000 0
-46 854 0
-911 -294 912 0
-3129 -226 3131 0
35 698 0
-3015 3019 0
-1929 -128 1930 0
-946 947 0
-2495 2496 0
-1771 1773 0
-3075 222 3076 0
-1364 1373 0
-528 -341 0
-824 829 0
-2031 267 2032 0
-1614 333 1616 0
-2236 -150 2237 0
-2195 -439 2197 0
-1853 1855 0
-190 2808 0
-1824 -120 1825 0
-1121 434 0
-1916 1920 0
-1949 388 1950 0
-1423 343 1425 0
-1839 439 1840 0
-343 -53 0
-1900 1901 0
-935 -315 937 0
-145 2177 0
-2683 2687 0
-2967 -204 2969 0
-2903 200 2905 0
-1196 1199 0
-1689 -385 1690 0
-833 -46 835 0
-734 735 0
-1963 1966 0
-1889 -300 0
-1996 -426 0
-476 478 0
-1259 1264 0
-2570 241 0
-1585 100 1587 0
-2885 351 0
-701 252 0
-636 381 0
-2669 -338 2670 0
-2997 2998 0
-786 787 0
-2335 2336 0
-2371 427 0
-1352 -83 1354 0
-324 323 0
-2413 2416 0
119 1832 0
-2426 -290 0
-2399 -453 0
-726 730 0
-30 662 0
-164 2419 0
-800 42 802 0
-853 854 0
-788 342 789 0
-3054 262 0
-1011 413 1013 0
-1271 1280 0
-2222 149 2224 0
-1743 238 0
-852 446 0
-1164 -68 1166 0
-178 2605 0
-1275 1282 0
-2768 453 2770 0
-2469 2470 0
-1871 299 1873 0
-2533 174 2534 0
-1040 1041 0
-1977 132 1978 0
-2237 -257 0
-2651 182 2652 0
-1684 -108 0
-1827 1829 0
-683 231 0
-2749 416 2750 0
-2723 -185 2725 0
-3026 212 3028 0
-55 968 0
-179 2659 0
-1890 1894 0
-865 870 0
-2515 -373 0
-834 -46 0
-1368 283 1370 0
-796 -343 0
-804 -42 806 0
-524 -9 526 0
-1413 1415 0
-708 709 0
-2118 -345 2119 0
-2030 266 2031 0
-2844 -306 0
-1506 -436 1508 0
-2971 2972 0
-2092 -321 0
-1948 387 1949 0
-1536 274 0
-1517 244 1518 0
-2377 -162 2378 0
-838 841 0
-186 2753 0
-298 297 0
-418 417 0
-1143 1144 0
-768 -39 770 0
-2252 152 2253 0
-2071 2074 0
-504 313 0
-1318 -446 1320 0
-1609 1610 0
-2454 2457 0
-2203 237 2205 0
-1946 389 0
-2251 278 0
-1210 1211 0
-1231 -317 1232 0
176 2566 0
-137 2069 0
21 0
-432 431 0
-954 354 955 0
-2861 2870 0
-553 555 0
-2021 2029 0
-205 2995 0
-1019 1021 0
-615 616 0
-2568 2570 0
-1097 1101 0
-678 34 680 0
-311 -205 0
-1911 359 0
-1382 1383 0
-1010 412 1012 0
-2385 162 2387 0
-2931 2932 0
-1174 -273 1175 0
-2327 -337 0
-45 853 0
-620 622 0
-1787 287 0
205 2987 0
-2111 2112 0
71 1186 0
-220 219 0
-1449 1450 0
-1931 1935 0
-2553 -405 2554 0
-993 -57 995 0
-2698 2702 0
-3118 -365 0
-2236 2238 0
-1832 1833 0
-2760 2763 0
-558 -13 560 0
-138 2072 0
-3083 -222 3085 0
-293 -17 0
-3065 3066 0
-1947 130 1948 0
-201 2955 0
-272 271 0
46 846 0
-392 391 0
-1899 1900 0
-3033 417 3034 0
-156 2324 0
-5 507 0
-1583 1584 0
-1762 257 1764 0
-370 1806 0
-1036 -233 0
-1766 -113 1768 0
-1105 -66 1107 0
-2924 -376 2925 0
-2613 2614 0
-2197 -440 0
-170 2510 0
-2710 2718 0
-1184 1185 0
-1766 1769 0
-1223 1230 0
247 2017 0
-1138 254 0
-406 405 0
-665 -32 666 0
-2731 -391 2732 0
-2112 -141 2114 0
-590 -20 591 0
-2033 2034 0
-945 55 947 0
-1142 256 0
-527 529 0
-2018 2019 0
-47 873 0
-78 1294 0
-2785 2786 0
-2620 2624 0
-1290 -383 0
-74 73 0
-1442 91 1444 0
-194 193 0
-585 308 0
-1056 -61 1058 0
-1279 385 0
-3014 -209 3016 0
-1844 -438 1846 0
-1378 -84 1380 0
-1806 1807 0
45 825 0
-2271 -279 0
-285 -97 0
-1393 86 1395 0
-2138 372 2139 0
-1162 273 0
-2177 -146 2178 0
-543 547 0
-2063 -136 2065 0
169 2473 0
-246 245 0
-1753 1754 0
-2449 -167 2451 0
-1106 1107 0
-894 293 895 0
-848 850 0
-797 -342 798 0
-520 341 522 0
-2511 -171 2513 0
-2366 425 2368 0
-1072 63 1074 0
-1820 1821 0
-592 -307 593 0
-104 1654 0
-2587 2588 0
-1107 -397 1109 0
-1158 1159 0
-2323 -335 0
-2707 2708 0
-1925 1926 0
-1474 401 0
-2878 198 2880 0
-920 923 0
-380 379 0
-669 -410 670 0
-1687 1690 0
-2962 -430 0
-2007 2008 0
-2465 169 2467 0
-532 11 534 0
-2976 305 2978 0
-158 2333 0
-2070 2073 0
-231 1037 0
-1181 1188 0
-2583 177 2585 0
-2837 2840 0
-2375 2376 0
-2988 207 2990 0
-2250 277 0
-285 1797 0
-168 167 0
-391 -171 0
-2917 -200 2919 0
41 42 43 44 395 396 397 398 0
-771 776 0
-2410 289 2411 0
-1555 -274 1556 0
-1296 -385 0
-3029 3033 0
-1018 1020 0
-492 -5 494 0
74 1218 0
-193 2860 0
-2509 2510 0
-1727 1728 0
-1080 1081 0
-3088 223 3090 0
230 684 0
-1604 -320 1606 0
-1354 -84 0
-189 2807 0
-963 969 0
-1147 1148 0
55 952 0
-2074 -289 0
-1132 1133 0
-2681 2682 0
-878 -263 0
-952 956 0
-1530 97 1532 0
-2501 2505 0
-1515 1516 0
252 0
23 0
165 2409 0
-2282 2283 0
-88 1411 0
-2263 2269 0
-495 498 0
-2691 -182 2693 0
-2044 2047 0
-2055 288 2057 0
-2686 365 0
-1874 124 1875 0
-800 801 0
-1822 -119 0
-1922 1929 0
-2349 2350 0
-639 382 0
-620 395 0
-1144 1149 0
-2354 2356 0
-142 141 0
-39 791 0
-201 2944 0
-365 -197 0
-1207 1214 0
-1145 -253 1147 0
-163 2418 0
-194 2839 0
-531 10 533 0
-3053 261 0
-307 -71 0
-1211 1216 0
-5 496 0
-1232 -318 1233 0
-1784 286 1786 0
-64 1084 0
-1774 1776 0
-2395 -451 2397 0
-2714 392 2716 0
-96 1546 0
-1516 1519 0
-1921 -126 1923 0
-2618 310 0
-1444 92 1446 0
-1701 1702 0
-2987 206 2989 0
-1264 -356 1265 0
-846 443 848 0
113 1777 0
-1974 424 1976 0
-2144 -144 2146 0
-1826 1828 0
-2815 192 2817 0
-2273 -278 2274 0
-1888 1889 0
-2733 2736 0
-1244 355 0
-2918 2919 0
-1095 397 1096 0
-598 22 600 0
-53 939 0
-3133 -228 3134 0
-2163 404 2165 0
-1414 -309 0
-312 311 0
-103 1653 0
-1299 -386 0
-1919 361 1920 0
-1473 400 0
-2852 2855 0
-2866 -327 2868 0
-1965 -389 1966 0
-2930 2935 0
-2972 205 2974 0
-1106 -66 1108 0
-1686 1689 0
-1832 120 1834 0
-2915 2920 0
-2453 2456 0
-1748 -236 0
-553 14 554 0
-2919 2922 0
-2077 -290 0
-446 445 0
-1541 273 1542 0
-2870 -196 2871 0
-1727 -110 1729 0
-881 -264 0
-1712 -421 0
-728 732 0
-437 1847 0
-387 1964 0
160 2362 0
-871 263 872 0
-629 630 0
-2363 161 2365 0
-777 -315 0
-1648 358 0
-1754 113 1756 0
-1862 1863 0
-1486 -94 1487 0
-696 697 0
-1443 91 1445 0
-2230 2231 0
-1153 69 1155 0
-1057 -61 1059 0
-80 1316 0
-1434 -343 0
-228 3138 0
-1814 401 1816 0
-1992 1995 0
-461 -2 463 0
-1588 1590 0
-186 2731 0
-1103 1110 0
-641 646 0
-694 34 696 0
-286 285 0
-868 869 0
-1498 436 0
-468 4 470 0
-303 -177 0
-830 831 0
-1502 438 0
-1597 1598 0
-815 816 0
-951 955 0
-2500 2504 0
-935 936 0
-741 -282 0
-3084 -311 3086 0
8 516 0
-1722 1724 0
-922 316 0
-882 883 0
-2026 266 0
-433 -45 0
-2247 2253 0
-2104 346 0
-420 419 0
82 1340 0
-2552 2556 0
-2251 2255 0
-1065 1068 0
17 578 0
-533 11 535 0
-2483 -347 0
-2799 2800 0
-621 395 622 0
-2634 2638 0
-1234 -317 1235 0
-1786 287 1788 0
-885 891 0
112 1754 0
93 1475 0
-2619 2623 0
-243 1526 0
-1410 -307 0
-889 893 0
133 0
-401 -107 0
-1420 90 1422 0
-957 354 958 0
-2540 408 0
-1821 -119 1823 0
-2866 2867 0
-2701 2705 0
-208 207 0
-2676 183 2678 0
-403 2183 0
-2488 -348 2489 0
25 0
-2686 2690 0
-160 2355 0
-2617 309 0
-584 307 0
-1375 284 1376 0
-2467 2468 0
-1199 1202 0
-1935 -361 1936 0
-2991 2993 0
-1197 -72 1198 0
-2933 2934 0
-569 -14 571 0
-3053 3054 0
-2362 161 2364 0
-260 259 0
-1401 308 1403 0
-3089 223 3091 0
-1340 83 1342 0
-3058 3060 0
-804 805 0
-971 -355 0
-1830 -403 1831 0
-169 2484 0
-909 -295 0
-1690 -386 1691 0
-1152 68 1154 0
-162 2379 0
-844 -422 0
-1572 300 0
-2212 -237 2214 0
-1270 76 1272 0
-1698 110 1700 0
-2479 2484 0
-1939 1940 0
-41 804 0
-2436 168 2438 0
-2405 2406 0
-1150 -255 1151 0
-3019 -351 3020 0
-394 393 0
-898 -50 900 0
-1520 -96 1522 0
-2483 2486 0
-1531 97 1533 0
-688 -229 690 0
-537 12 538 0
-439 -131 0
-14 570 0
-1821 1824 0
-2546 2551 0
-2851 2854 0
-1807 -372 0
25 619 0
-2732 -392 2733 0
-1607 1608 0
-782 40 784 0
-2802 192 2804 0
18 579 0
-2534 405 2535 0
-3125 228 3127 0
-139 2093 0
-2715 392 0
-644 645 0
-522 342 0
-1574 -99 1576 0
-182 181 0
-2333 -361 0
275 1854 0
-1893 1897 0
151 2276 0
-2447 328 0
-2676 2683 0
-1320 -447 1322 0
-1489 1492 0
37 750 0
-1789 -114 1791 0
-1986 -132 0
-3020 -352 0
-1857 278 0
-2198 2200 0
-2441 2442 0
-1612 104 1614 0
-2172 -145 2174 0
-2907 2908 0
-2010 -451 2012 0
-609 -324 0
-2391 452 2392 0
-234 233 0
-67 1164 0
-535 12 0
-316 315 0
-1545 1546 0
-841 844 0
-1374 283 1375 0
-2390 2393 0
-761 315 0
-2575 2576 0
-719 726 0
-1511 96 1513 0
-171 2517 0
-2695 2696 0
-1007 411 1009 0
-402 1830 0
-2291 -152 2293 0
-1991 1994 0
-723 728 0
-368 367 0
-504 506 0
-2457 2460 0
-1334 -234 1336 0
-2108 346 2109 0
-3078 312 0
-1341 83 1343 0
-2665 -337 0
-1091 1096 0
-551 552 0
-2162 403 2164 0
-2100 2101 0
83 1363 0
-2097 2106 0
-1581 1582 0
443 0
-2602 -178 2603 0
-517 9 519 0
-291 -191 0
-952 56 953 0
-2504 375 0
-634 638 0
-283 1390 0
-1767 -113 0
-409 -25 0
-156 155 0
14 566 0
-277 -135 0
-1631 -333 0
-2707 184 2709 0
-676 -433 0
-2442 327 0
-1493 -401 1494 0
47 864 0
-2595 270 0
-2881 2882 0
-2234 2235 0
-1250 355 1251 0
-62 1079 0
-2799 190 2801 0
-1638 -334 1639 0
-1773 1775 0
-1051 331 1052 0
-1490 -400 1491 0
-1576 -100 1578 0
-2297 2300 0
-3092 339 0
8 505 0
-2239 2241 0
-3060 291 0
-1994 -424 1995 0
-1736 235 1738 0
-107 1686 0
34 679 0
-2833 -194 2835 0
194 2846 0
1 465 0
-290 289 0
134 2014 0
-2382 -427 0
-42 805 0
-2904 2911 0
-260 2797 0
-2442 2447 0
-1902 1903 0
-2706 -366 0
-1120 1121 0
-2418 -164 2420 0
-2592 267 2593 0
-2427 2432 0
-1240 1241 0
-2769 453 0
-2073 -288 2074 0
-342 341 0
-2732 2735 0
-478 480 0
-2725 -186 2727 0
-2478 -168 2480 0
-2039 -136 2040 0
-1000 -383 0
-1969 1970 0
-2794 2796 0
-1154 69 1156 0
-309 -115 0
-641 -379 643 0
-1954 1955 0
-2066 -138 2068 0
-603 606 0
-2301 -302 2302 0
-9 527 0
-2337 2338 0
-157 2349 0
-1312 1314 0
183 2683 0
-1254 1255 0
-2803 2804 0
-2484 -170 2485 0
-550 553 0
-469 4 471 0
-264 1361 0
-130 129 0
-2079 139 2081 0
-1676 385 1677 0
-545 -379 0
-855 856 0
-647 -381 648 0
-1584 -300 0
-411 1018 0
-1449 368 1451 0
-9 540 0
-1257 1263 0
-1158 271 1160 0
-293 -37 0
114 1778 0
377 0
-2899 198 2901 0
-2471 2472 0
-1042 1043 0
-2283 302 2285 0
-742 746 0
-207 3012 0
-1735 112 1737 0
-521 341 0
-725 282 0
-1224 -73 1226 0
-1185 297 0
-787 343 0
-51 906 0
-1773 -256 1774 0
-2601 2604 0
-428 0
-2643 2644 0
37 726 0
-1134 68 1136 0
-457 2 459 0
-1421 90 1423 0
-2638 -311 0
-2001 2003 0
-2235 -150 0
-1943 1944 0
65 1094 0
111 1735 0
-2194 -146 2196 0
-2855 328 2856 0
73 1214 0
-1538 273 1539 0
-2220 148 2222 0
-2512 -172 2514 0
-300 299 0
-2855 2858 0
-2073 2076 0
-104 103 0
-1611 1612 0
-2840 2843 0
-98 1574 0
189 2799 0
-1699 110 1701 0
-85 1405 0
-3101 -339 0
-2203 2208 0
-1016 1017 0
-1956 -130 0
179 2619 0
-363 2336 0
-1082 -64 1083 0
-1783 1784 0
-689 -230 691 0
-1721 447 0
-1483 1487 0
-29 640 0
-1079 1082 0
-1804 -369 0
-617 618 0
-2570 2572 0
-2940 -201 2942 0
-1228 -317 0
-2552 -407 0
-1850 1851 0
-3132 -228 0
-2801 191 2803 0
-1481 -93 1483 0
-3099 3103 0
-415 -93 0
-1090 66 1092 0
-1628 1634 0
-1855 1857 0
-1451 1452 0
-61 1078 0
66 1119 0
-2700 2704 0
-1731 -448 1733 0
-1456 1458 0
-2762 2765 0
-548 -380 0
171 2525 0
-1613 104 1615 0
-2947 2948 0
14 555 0
-2173 -145 2175 0
-3067 3068 0
-274 273 0
-429 3139 0
-2044 -267 0
-793 -341 795 0
-1196 -295 0
-3130 3133 0
-2559 441 0
-1800 -288 0
-1585 1586 0
-1640 -336 0
-391 2734 0
-1590 1592 0
-743 747 0
-1710 1712 0
-349 -181 0
-2576 -240 2578 0
-650 31 652 0
-408 407 0
-2890 -198 0
-3023 212 0
-2644 181 2646 0
-437 -109 0
-2035 -135 2037 0
-335 -125 0
-1482 -93 1484 0
-2020 2021 0
-2602 2605 0
77 1280 0
-13 569 0
-2787 2788 0
-1057 1058 0
-2882 350 2884 0
-1461 -368 1462 0
-460 230 0
-245 -111 0
-2087 2088 0
-783 341 785 0
-1829 1831 0
-226 0
-1425 1426 0
-2630 -180 2632 0
-130 1983 0
-1751 -237 1752 0
-2192 2193 0
-2861 -195 2863 0
-1245 1249 0
-1758 255 1760 0
-1879 300 1880 0
-2494 2501 0
-2388 452 2390 0
-2720 393 2721 0
-1286 -77 1288 0
214 3045 0
-1984 -131 1986 0
245 0
16 0
-1170 -271 1171 0
-248 247 0
-415 -159 0
-850 852 0
-38 767 0
172 2526 0
-1972 423 1974 0
-70 1192 0
-2003 451 2004 0
-2857 328 2858 0
-1884 -123 1886 0
-2502 373 2503 0
-769 -40 771 0
-1160 1161 0
-2709 2710 0
-1927 1928 0
-1275 383 1277 0
-120 1842 0
-922 925 0
-382 381 0
-1747 1751 0
-2781 -455 0
-1689 1692 0
-2265 -277 2267 0
-2456 2459 0
-792 -341 794 0
-902 -52 904 0
-1027 1030 0
-565 566 0
-642 -379 644 0
-980 58 0
-2129 144 2131 0
-2839 2842 0
-1031 1032 0
-2765 -417 2766 0
-1198 -295 1199 0
-514 -314 0
-2473 170 2474 0
-930 939 0
-323 -73 0
-170 169 0
-41 808 0
-1261 -356 0
-1399 1400 0
-2421 2429 0
-2330 -156 0
-2091 -140 0
-2809 -191 0
-934 941 0
-2591 178 2592 0
-819 46 821 0
-116 1802 0
-362 2335 0
-1944 1950 0
-2128 2129 0
103 1617 0
-2468 2475 0
-190 2792 0
-2248 2249 0
-2537 405 2538 0
-345 -115 0
-103 1633 0
-222 221 0
229 682 0
-1790 -115 1792 0
-766 767 0
-1591 1593 0
-304 303 0
-541 -11 543 0
-1533 1534 0
-1675 108 1676 0
-121 1858 0
-1923 -127 1925 0
-1134 1135 0
-2814 -280 0
-1901 1902 0
-1217 319 0
-954 958 0
-1128 -433 1130 0
-108 1689 0
-2503 2507 0
-1597 -100 1599 0
-356 355 0
136 2049 0
171 2501 0
-271 -59 0
-1430 -89 1432 0
157 2337 0
-1968 131 1970 0
-1396 88 1398 0
-606 -22 607 0
-2605 -267 2606 0
-3134 -393 0
-1635 -334 1636 0
-2886 352 0
-1284 386 0
-3065 -219 3067 0
-1237 -320 0
-2914 -198 2916 0
-1326 1328 0
193 2825 0
-2513 -172 2515 0
-2817 2818 0
-675 -432 0
-2489 -349 0
-2035 2036 0
-588 -19 0
-879 -50 880 0
-2637 2641 0
-144 143 0
-110 1713 0
-830 -44 832 0
104 1642 0
-2622 2626 0
-341 -21 0
-393 -211 0
-2922 -376 0
-1004 -383 1005 0
-2087 -138 2089 0
216 3051 0
-1863 -277 1865 0
-1827 -402 0
-124 1899 0
-673 674 0
-671 -411 672 0
-2222 2223 0
166 2412 0
-2877 197 2879 0
-493 497 0
-2499 373 0
-1460 1462 0
-196 195 0
-1703 1704 0
-1050 62 1051 0
-1479 402 0
-740 741 0
-1523 1527 0
-690 -230 692 0
-278 277 0
-1507 1508 0
-1828 1830 0
-2907 376 0
-2641 -311 2642 0
-637 380 638 0
-1191 -70 1193 0
-687 -229 689 0
-923 926 0
135 2028 0
-1108 1109 0
-2443 168 2444 0
-2805 279 0
-2053 287 2055 0
-1228 1229 0
-181 2667 0
-1468 1476 0
-330 329 0
-3058 220 0
-849 444 850 0
-1209 74 1211 0
-2724 2725 0
129 1967 0
-2959 -428 2960 0
-1391 -285 1392 0
-914 52 916 0
139 2096 0
-702 252 703 0
-2479 -169 2481 0
-1242 1243 0
-1618 333 1619 0
-1782 285 1784 0
-2791 2792 0
-2009 2010 0
-1806 -371 0
-1569 298 1570 0
-580 581 0
-1870 124 1872 0
-307 1413 0
-118 117 0
-1887 1892 0
-925 317 0
-2854 2857 0
162 2386 0
-3005 209 3007 0
239 2569 0
-92 1459 0
-1429 1430 0
38 751 0
-715 -253 717 0
-872 264 0
-1970 1978 0
-2196 2197 0
221 3087 0
-1181 295 1183 0
-2057 289 0
-2921 2924 0
-1529 96 1531 0
-742 -38 743 0
-508 -7 510 0
-1974 1980 0
-1434 1436 0
-1938 129 1940 0
-2983 2985 0
247 0
-2746 417 0
145 2166 0
-714 715 0
-2566 239 2568 0
-252 251 0
-1617 1621 0
57 1006 0
-2674 -340 0
-594 20 596 0
-2482 -170 0
-2569 2571 0
-2404 2409 0
-1864 1865 0
-2883 350 2885 0
-648 -382 0
-2631 2632 0
-917 921 0
-2045 -266 2046 0
-1307 80 1309 0
-784 341 786 0
-2653 338 2654 0
-2451 2455 0
-1465 1466 0
-2604 -268 0
-1164 1165 0
-1236 -319 1237 0
-1878 299 1879 0
-2862 -195 2864 0
-1783 285 1785 0
-1091 397 1093 0
-323 1902 0
-969 973 0
-1875 299 1876 0
-2518 2522 0
-2761 2764 0
-1047 1053 0
-974 -355 975 0
-2011 -451 0
-750 751 0
-2925 -377 0
180 2644 0
-1959 -387 1960 0
-2057 2062 0
-58 1015 0
-2376 -162 0
84 1364 0
-1646 357 0
-2904 375 2906 0
-1552 -274 0
-71 1197 0
-92 91 0
-2257 278 2258 0
-1973 423 1975 0
-125 1900 0
-2421 -166 2423 0
-817 818 0
-439 2198 0
-2754 -187 2756 0
-6 508 0
-937 938 0
-2890 2892 0
-1403 1404 0
-770 -40 772 0
-1328 235 0
-1975 424 0
-757 761 0
-1724 1726 0
-1239 1246 0
-159 2373 0
-884 885 0
105 1665 0
48 865 0
-1836 438 0
-2433 2434 0
-581 20 583 0
-2455 -325 2456 0
-2198 -440 2199 0
-2253 2257 0
-3131 -227 0
-705 254 0
-1672 386 1674 0
222 3088 0
-941 -316 942 0
-226 225 0
-2801 2802 0
-1513 243 1515 0
-2408 289 0
-191 2811 0
-2621 2625 0
-1538 1542 0
-891 895 0
-2868 2869 0
-3104 -340 0
-2146 -371 0
-2694 -184 2696 0
-1905 1906 0
-1238 74 1240 0
-129 1982 0
-1643 105 0
-1201 1204 0
-2820 303 2822 0
-2491 -349 2492 0
-999 -382 0
-3055 3056 0
-1202 -297 0
-2755 2759 0
-262 261 0
-679 229 681 0
-3122 227 3124 0
207 2991 0
-2739 2740 0
-43 830 0
-3060 3062 0
-1312 447 0
-117 1820 0
-1573 1574 0
-37 766 0
-3097 -223 3099 0
-883 51 885 0
-3107 3108 0
-2563 -441 0
-1877 301 0
-2889 -197 0
-1941 1942 0
-2571 241 2572 0
-2332 -158 0
-2407 2408 0
-396 395 0
-2165 2170 0
-978 979 0
-2431 -291 2432 0
-2522 -374 2523 0
-2285 2290 0
-2546 -405 2548 0
-2606 -268 2607 0
-1942 387 1944 0
-1969 131 1971 0
-100 1598 0
-200 199 0
-1031 -60 1033 0
-2014 245 0
-2360 -392 0
-2775 2776 0
-815 44 817 0
-1812 1813 0
-762 313 763 0
-1940 130 1942 0
-578 18 580 0
-130 1961 0
-1570 299 0
-1170 1172 0
-1953 1958 0
-1582 -299 1584 0
-2604 2607 0
-1957 1960 0
-1233 1237 0
-3095 340 0
-1685 -385 0
-1480 1481 0
-3000 -329 3002 0
-2986 -306 0
-1047 332 1049 0
-49 879 0
-2544 2550 0
112 1736 0
-236 235 0
-150 2261 0
-1917 359 1918 0
-271 -15 0
-1171 -272 0
-2084 140 2085 0
-114 0
-2625 311 2626 0
-722 38 724 0
-63 1102 0
-2778 -454 2780 0
212 3027 0
-1547 1548 0
-1005 -384 0
-1540 275 0
-2299 -302 0
-3096 3097 0
-2314 2315 0
-465 2 467 0
-1837 439 0
-2697 2698 0
-938 -317 0
-1372 1377 0
-968 972 0
-1885 -124 1887 0
-2517 2521 0
-370 369 0
-2459 2462 0
-1495 94 1497 0
249 0
-20 603 0
-1015 1018 0
-65 1126 0
-1982 1983 0
-513 -313 0
-792 797 0
-2102 2103 0
-151 2291 0
95 1529 0
76 1250 0
-1526 -244 1527 0
-2059 287 2060 0
-1260 -355 0
-1730 -448 1732 0
-1092 397 0
-2547 -405 0
-1205 -298 0
-1114 -397 1115 0
-158 157 0
-2651 2655 0
-2849 196 0
-2452 -168 0
-3016 -210 0
-2740 188 2742 0
-2636 2640 0
-1417 88 1419 0
-1111 -397 1112 0
-1697 109 1699 0
-1227 1232 0
-2883 2884 0
-3021 210 0
-176 2597 0
-3003 3004 0
-2416 291 2417 0
-210 209 0
-1219 318 1220 0
-2299 2302 0
-2241 2243 0
-2322 -156 2323 0
182 2655 0
-754 755 0
-2083 321 0
-1279 1284 0
-632 637 0
-2822 304 2824 0
-3075 3077 0
-1646 1648 0
-2013 134 0
201 2947 0
-3137 3138 0
-1294 -383 1295 0
125 1905 0
436 1501 0
-344 343 0
-2796 2798 0
-1713 1715 0
-1956 1957 0
-1683 -108 1685 0
-2543 -173 2545 0
-1256 1257 0
-874 -49 876 0
-2805 2806 0
-2757 -415 0
-1212 317 0
-594 595 0
-456 -455 -214 -213 0
-2143 2144 0
-132 131 0
-2819 194 2821 0
-112 1766 0
-369 -105 0
-931 -53 933 0
-661 662 0
-928 318 0
-996 -381 998 0
-99 1597 0
121 1866 0
-2932 202 2934 0
-1405 -86 1407 0
-2977 2978 0
-1609 102 1611 0
-3107 225 3109 0
-1248 1252 0
-1306 -416 0
-1491 1494 0
-3040 3043 0
-2982 2984 0
-1602 -319 1604 0
-1658 -357 1660 0
-266 265 0
-2818 2826 0
-1495 1496 0
-3044 3045 0
5 499 0
-2722 -184 2724 0
-939 -54 940 0
-2682 364 0
-2865 2872 0
-2645 2646 0
-691 -231 693 0
-735 -37 737 0
-2869 2874 0
-318 317 0
-1683 1687 0
-438 437 0
-1945 1946 0
-149 2260 0
-2770 2772 0
-172 2542 0
-1957 -387 0
-228 3135 0
-2453 -325 0
-501 502 0
-2821 303 2823 0
-2590 2595 0
-2050 2051 0
-2532 2536 0
-1849 -440 0
-1254 -74 1256 0
-1113 -399 0
-2779 2780 0
-417 -201 0
-1997 1998 0
-188 2776 0
137 2078 0
-2599 2603 0
-106 105 0
82 1324 0
-1355 1357 0
-2662 2668 0
-1253 358 0
-884 51 886 0
-1417 1418 0
-1468 94 1470 0
-3128 394 0
-635 636 0
-83 1378 0
-1621 333 1622 0
-529 -341 530 0
-1404 310 0
-375 2926 0
-1723 1725 0
-2243 -260 0
-69 1168 0
-2542 -173 2544 0
-1785 1786 0
-397 814 0
-1744 -112 1746 0
-240 239 0
17 575 0
-195 2870 0
-947 56 949 0
-76 1286 0
-811 -395 0
-1852 1853 0
-1070 1071 0
-1552 1556 0
-2247 152 2249 0
-905 909 0
-2286 154 2287 0
-205 2983 0
-625 -25 627 0
-890 894 0
-2411 290 0
-2596 -176 2598 0
-2229 259 2231 0
-2760 -416 0
-1110 -66 1111 0
-2539 407 2540 0
-2259 280 0
251 0
-221 3096 0
-750 38 752 0
-2375 -161 0
-2279 2287 0
-34 707 0
-1659 -357 1661 0
-610 22 0
-3048 241 0
-1979 424 1980 0
-2329 -338 0
-2117 -142 2118 0
-2811 2813 0
-325 -139 0
-389 2357 0
-716 -253 0
-1741 236 1742 0
-1971 1972 0
-1534 273 1536 0
-2863 -196 2865 0
-2459 -327 0
-80 79 0
-2779 -454 2781 0
-1387 1390 0
-1869 1875 0
-2112 2117 0
-3121 3122 0
-1288 -78 1290 0
-1598 -101 1600 0
-1172 -272 1173 0
-2174 2178 0
-2116 2119 0
-2404 165 2406 0
-745 749 0
-2941 2945 0
-1454 1457 0
-1558 -274 1559 0
-1886 -124 1888 0
-1759 1760 0
-116 1795 0
-1016 -411 0
-2484 2487 0
-676 677 0
253 1140 0
-109 1727 0
-214 213 0
-1983 1988 0
-1059 1060 0
-759 763 0
-1467 93 1469 0
-1044 1045 0
-146 2195 0
-3109 226 3111 0
-942 -317 943 0
18 576 0
-2024 265 2026 0
-1427 1428 0
-2716 393 0
-1126 1127 0
-1055 -60 1057 0
-1169 1171 0
-152 2272 0
-1247 1251 0
-426 2383 0
-283 -49 0
-2557 174 2559 0
195 2851 0
-1178 1179 0
-808 -42 0
-531 532 0
100 1567 0
203 2971 0
-2380 -426 0
-2081 2085 0
-397 -57 0
-1056 1061 0
-2956 -427 2958 0
-1669 108 1671 0
-54 53 0
-1561 1562 0
-2217 -238 2218 0
-574 17 0
-501 7 0
-699 251 0
-2215 -238 0
-1381 1385 0
-1365 1366 0
-1227 -317 1229 0
-2048 136 2050 0
-2626 312 0
-2007 -449 2009 0
-966 967 0
-1733 1734 0
-2458 2461 0
-74 1255 0
-188 187 0
-2740 2748 0
-988 382 989 0
-1553 1557 0
-1620 335 0
-187 2775 0
-2021 136 2023 0
-248 -247 -246 -245 -134 -133 0
-1033 1034 0
-1130 -434 1132 0
58 1007 0
-2318 -154 2320 0
-3061 291 3062 0
-875 -49 877 0
-1894 -299 1895 0
-1620 1624 0
-2830 2831 0
-21 606 0
-1401 1402 0
-1848 -439 1849 0
23 612 0
-2897 -351 2898 0
-2344 390 2346 0
-2650 2654 0
-303 2842 0
-1026 232 0
197 2899 0
129 1947 0
-706 -34 708 0
-1745 1750 0
-2356 -390 0
-1122 434 1123 0
47 861 0
-2250 2251 0
-2610 -270 0
-1303 -413 0
-1981 426 0
-3043 -418 0
-224 223 0
-1152 1153 0
-175 2596 0
-1288 1292 0
-929 -52 931 0
-2643 180 2645 0
-2133 2139 0
-1593 1595 0
-2561 -174 2563 0
-1535 1536 0
-1463 -369 1464 0
-868 50 0
41 800 0
-2912 377 2913 0
-873 874 0
-1551 -273 0
-3069 3070 0
-143 2147 0
-672 -412 0
-1688 -386 0
-136 2042 0
-1512 243 1514 0
-2205 238 2207 0
-1942 1949 0
-87 1409 0
-2369 2370 0
-1645 1647 0
-2 0
-358 357 0
-760 764 0
-3040 -417 0
-877 -50 0
-2387 451 2389 0
-2448 -166 2450 0
-2737 2738 0
-2719 392 2720 0
-1712 1714 0
-2947 202 2949 0
234 1329 0
-2036 -136 2038 0
-814 -398 0
-1610 1617 0
-1794 1796 0
-2037 2038 0
-321 -115 0
-1837 1840 0
-1718 -424 0
-1672 1678 0
-2894 -350 0
-1757 114 1759 0
-1614 1619 0
-1074 1075 0
-1841 1842 0
-1803 -118 0
-2566 2569 0
-2104 2105 0
-675 676 0
-378 -377 -212 -211 -210 -209 0
-2224 2225 0
-1177 71 1179 0
-198 197 0
-365 -209 0
-1262 1266 0
-347 -155 0
-32 674 0
-2101 345 2103 0
-295 1203 0
-2938 2939 0
-2291 2292 0
-1567 1569 0
-1509 1510 0
-2355 -389 2356 0
-432 676 0
-2276 2277 0
-2168 404 2169 0
-208 3013 0
-2139 373 2140 0
-640 -30 642 0
-925 928 0
-170 2487 0
51 914 0
-2038 2041 0
-2659 2660 0
-2969 -269 0
-773 -314 0
-3125 3126 0
-2343 2344 0
-2871 -327 2872 0
-332 331 0
-914 915 0
-452 451 0
-1519 246 0
-2726 2727 0
-2711 2712 0
-1694 -388 0
-1906 127 1908 0
-2708 2717 0
-2911 376 2912 0
-1521 1526 0
-2488 2491 0
-1060 -331 0
-739 744 0
-60 1032 0
-184 2723 0
220 3072 0
-2793 2794 0
-1168 -70 1169 0
-1768 1770 0
-2011 2012 0
-1027 233 0
-582 583 0
15 573 0
-865 49 867 0
-3080 -221 3082 0
-120 119 0
-2864 -196 2866 0
-1349 1350 0
-1281 383 1282 0
122 1867 0
-555 409 556 0
-813 -397 0
-2078 2079 0
-907 -293 908 0
-1431 1432 0
-649 650 0
-343 -61 0
-2845 2846 0
-1173 1175 0
-668 -410 0
-2965 2966 0
-135 2039 0
-2723 2728 0
-3042 -417 3043 0
-1967 130 1969 0
-994 1002 0
-464 -230 0
-1395 87 1397 0
-2509 -170 2511 0
-1691 -387 0
-2727 2730 0
-253 -47 0
-716 717 0
-2346 391 2348 0
-254 253 0
-998 1004 0
-1619 1623 0
-2 474 0
-30 641 0
-2494 171 2496 0
-1726 450 0
-1866 1867 0
-2612 179 2614 0
-2200 -441 2201 0
-2633 2634 0
-541 546 0
-75 1285 0
-11 546 0
-2827 304 2828 0
-2556 -408 0
-846 849 0
102 1591 0
-1968 1977 0
-122 1883 0
-991 -56 993 0
-937 -316 0
-426 425 0
-1866 122 1868 0
-84 1357 0
-1204 -297 1205 0
-2414 291 0
-325 1904 0
-124 1894 0
-971 975 0
-2520 2524 0
-2763 2766 0
-1738 1742 0
-1201 -296 1202 0
96 1530 0
-2767 2768 0
-2143 -143 2145 0
-165 2428 0
-1258 -76 1260 0
87 1417 0
-94 93 0
358 1651 0
-93 1486 0
-1099 398 1100 0
-2772 2774 0
-2586 267 2588 0
-2892 2894 0
-2998 -208 3000 0
-525 -9 0
-967 -354 0
-1255 -75 1257 0
-2052 2053 0
-1405 1406 0
-681 683 0
-435 -79 0
-623 624 0
-2819 2820 0
-1315 -80 1317 0
-1041 1050 0
-563 -409 0
-1410 1412 0
-2520 -375 0
-1425 344 1427 0
-2959 2961 0
-690 691 0
-114 1790 0
-2055 2061 0
-738 -38 740 0
-228 227 0
-2020 135 2022 0
-3090 224 3092 0
-2798 -262 0
53 920 0
-2302 2305 0
-1322 -448 0
-1540 1544 0
-2845 194 2847 0
-893 897 0
-711 -251 713 0
-498 -294 0
-1112 -398 1113 0
-2064 2069 0
-576 281 0
-1524 1525 0
-2766 -418 0
-1063 -332 0
-3073 3074 0
-2831 2836 0
-1834 437 1836 0
186 2738 0
-3012 -208 3014 0
-1907 1908 0
-2345 390 2347 0
36 700 0
-1649 1651 0
-182 2692 0
-463 464 0
-2444 325 2445 0
-1592 320 0
-1408 -88 0
-820 419 822 0
-1365 85 1367 0
-2350 -159 2352 0
-1400 308 1402 0
-2741 2742 0
-943 -318 0
-2062 290 0
-411 -43 0
131 1997 0
-2536 407 0
-3039 -214 0
-68 67 0
-3100 -224 0
-2191 441 2193 0
-59 1055 0
-1898 -124 0
-2924 2927 0
-271 1172 0
-1295 -384 1296 0
-658 411 660 0
-612 613 0
-3109 3110 0
-2026 2027 0
-1094 66 1095 0
-1273 1281 0
-2325 -336 0
-1292 -383 1293 0
-1924 1930 0
-2121 -346 2122 0
-980 981 0
-867 50 869 0
-2680 363 2682 0
-497 -293 498 0
92 1466 0
54 945 0
-2412 289 2413 0
-442 0
-1617 104 1618 0
-2753 2758 0
-2213 2214 0
-202 201 0
-1305 -415 0
-2016 247 0
-2462 -328 0
-1266 -355 1267 0
-484 488 0
-73 1254 0
-1666 107 1668 0
-1814 1815 0
6 500 0
185 2717 0
-1514 1518 0
-2581 2582 0
-867 871 0
-226 3119 0
-2869 -329 0
-1634 1638 0
-2485 -347 2486 0
-1172 1174 0
75 1246 0
-2159 2167 0
-2101 2108 0
220 3061 0
-994 -58 996 0
-308 0
-2163 2169 0
-959 356 0
-1269 -358 0
-1002 -381 1003 0
-2514 -373 2516 0
-977 982 0
-490 -4 492 0
-282 -281 -18 -17 -16 -15 0
-2086 322 0
-1116 -399 1117 0
-1178 71 1180 0
-981 984 0
-1501 437 1502 0
-1166 1167 0
-519 520 0
-1963 -389 0
-2715 2716 0
-2535 2539 0
-42 41 0
-3120 -366 0
-166 2449 0
-2316 2317 0
-209 3018 0
138 2079 0
-586 587 0
-3083 3084 0
86 1394 0
-1353 1354 0
-122 1859 0
-2413 290 2414 0
-2221 149 2223 0
-1358 1360 0
-1934 -360 1935 0
-2702 -365 0
-2348 392 0
-1721 1722 0
-774 778 0
-415 -107 0
-176 175 0
-1953 -129 1955 0
-2910 375 2911 0
107 1695 0
-2023 2030 0
-2450 2451 0
-1151 -256 0
-1564 100 0
-1593 320 1594 0
-1907 127 1909 0
-2085 321 2086 0
-478 -271 0
-757 314 0
-81 1351 0
-1301 -79 0
-2270 2274 0
-1006 1007 0
-1851 1854 0
-1366 1374 0
-1793 1795 0
-1088 1089 0
-837 -419 838 0
-2623 309 2624 0
-2395 2400 0
-2638 2642 0
-1370 1376 0
-908 912 0
-1445 92 1447 0
-291 -203 0
216 3048 0
-2545 -174 2547 0
-1123 435 0
-876 -50 878 0
-3111 365 0
-3005 3006 0
-212 211 0
-2953 429 0
173 2533 0
-1507 -436 1509 0
-906 -52 907 0
-2500 374 0
-1148 -255 0
137 2058 0
4 482 0
85 1373 0
-2572 242 0
-2816 193 2818 0
-933 -54 935 0
-572 -432 0
-1059 -62 0
-247 -147 0
-3009 210 3010 0
-2635 -180 2636 0
-2461 -327 2462 0
-861 862 0
-431 675 0
-3057 3058 0
-2495 171 2497 0
-1586 1589 0
-2514 2519 0
-2662 -182 2664 0
-1939 129 1941 0
-335 -139 0
-1648 1650 0
-1402 309 1404 0
437 1838 0
-161 2377 0
-1660 -358 1662 0
-269 -189 0
-2017 248 0
-634 380 636 0
68 1153 0
-1549 -98 1551 0
30 632 0
-2171 -144 2173 0
-2466 170 2468 0
-1316 -445 1318 0
-2950 428 2952 0
-1695 1696 0
-1715 1717 0
-1452 370 0
-150 149 0
-1012 413 0
-2046 -267 2047 0
-3046 456 0
-2424 2425 0
-76 1266 0
-995 996 0
-2394 -162 2396 0
-661 -30 663 0
-225 3129 0
-2300 -301 2301 0
-586 -18 588 0
-2487 2490 0
-2607 2610 0
-596 597 0
-1484 -94 0
-1194 -72 1196 0
-2145 2146 0
-1363 1364 0
-56 992 0
281 577 0
-685 232 0
-2127 2136 0
-415 -173 0
-2587 267 2589 0
-1256 -75 1258 0
-663 664 0
95 1511 0
-2979 2980 0
-18 587 0
-559 -13 561 0
-1714 -422 0
-2984 2986 0
-1959 1962 0
-1497 1498 0
-119 1824 0
204 2972 0
-2264 2265 0
-2517 -172 2518 0
-2116 -345 0
-265 -95 0
-534 12 536 0
-381 -41 0
-571 -431 0
-2146 2149 0
-3113 3114 0
-2331 2332 0
-1674 387 0
-2978 306 0
-320 319 0
-902 903 0
-3098 3099 0
9 531 0
-440 439 0
-3118 3120 0
-1666 1675 0
40 783 0
-1489 -399 1490 0
-1285 1286 0
-3059 220 3060 0
-1533 98 1535 0
-1344 263 1346 0
-2398 2399 0
-323 -87 0
-2534 2538 0
-2049 2058 0
-324 1903 0
-2415 290 2416 0
-853 -46 855 0
-2816 2825 0
-2519 2523 0
-1686 -108 1687 0
-89 1433 0
-1999 2000 0
-2930 201 2932 0
-1043 62 1045 0
149 2244 0
-1141 255 1142 0
-733 284 0
-1337 1338 0
-3105 224 3107 0
-243 -81 0
-2507 375 2508 0
-1706 424 0
-1478 401 1479 0
-1560 -276 0
-1419 1420 0
-1488 -400 0
-2072 -287 2073 0
-1156 70 1158 0
-2891 2893 0
-1704 423 1706 0
-2186 2187 0
-2953 2954 0
-2171 2172 0
-2653 2657 0
48 862 0
-91 1457 0
-2958 2960 0
-1131 -435 1133 0
-1471 1472 0
-1665 106 1667 0
-105 1680 0
-1251 356 1252 0
-46 45 0
-2658 340 0
-1072 1073 0
-462 -229 464 0
-1248 356 1249 0
-1657 -106 1659 0
-3087 3088 0
-892 896 0
-414 413 0
-2751 418 0
-155 2330 0
-2261 2268 0
209 3021 0
-995 -58 997 0
-2388 2392 0
-1044 62 1046 0
-2187 439 2189 0
69 1176 0
-739 -281 741 0
420 0
-1206 1207 0
-721 727 0
-1546 1553 0
-1973 1974 0
-544 545 0
-2213 -237 2215 0
-307 -37 0
-82 81 0
-1550 1555 0
-1010 1011 0
-2860 2861 0
-482 5 484 0
-118 1821 0
-538 379 539 0
-1913 1917 0
-3123 3124 0
-2668 -337 2669 0
-395 -29 0
-1393 1394 0
-1416 -310 0
-611 612 0
-1802 -117 0
-2160 2161 0
-1378 1379 0
-2401 -453 2402 0
-1242 76 1244 0
-1761 1762 0
-1989 -423 1990 0
-678 679 0
175 2581 0
-1406 -87 1408 0
-1140 254 1141 0
-1450 369 1452 0
-216 215 0
-1445 1446 0
-2851 196 2852 0
-1159 272 1161 0
-428 2961 0
-262 -261 -218 -217 -216 -215 0
-2825 194 2826 0
-1265 1269 0
-2900 199 2902 0
-1046 1047 0
-1570 1572 0
-1625 -102 1627 0
353 614 0
-1633 1637 0
-388 387 0
-774 -40 775 0
-1550 -273 1552 0
-2794 -260 0
243 863 0
-2853 328 0
-2317 338 0
-1115 -398 1116 0
-2759 -415 2760 0
-2747 188 2748 0
-1180 1181 0
-533 534 0
-1384 -86 1385 0
-1300 1301 0
-101 1625 0
-1263 -355 1264 0
43 815 0
-327 -179 0
-816 825 0
-2067 2068 0
-1436 -344 0
-56 55 0
-2549 2553 0
-2792 2795 0
-1062 1065 0
-820 827 0
-600 601 0
-1543 275 1544 0
-2872 -328 2873 0
-2014 2015 0
-2081 140 2083 0
-1183 1189 0
-1367 1368 0
-3114 -225 3116 0
-65 1110 0
-489 294 0
-2663 -182 2665 0
-2134 2135 0
-2917 2921 0
-1430 1433 0
-753 40 755 0
-1661 -358 1663 0
-1332 -233 1334 0
-1735 1736 0
-1692 -386 1693 0
-2951 428 2953 0
-1192 1197 0
-1317 -445 1319 0
-45 836 0
-2657 339 2658 0
-1222 -72 1224 0
-190 189 0
-842 -420 843 0
-1555 1559 0
-1578 -297 1580 0
-1064 -331 1065 0
-1255 1262 0
-2668 2672 0
-1035 1036 0
-835 838 0
-1802 1803 0
-1563 99 0
-32 667 0
-2164 404 0
-2326 2328 0
-1816 402 1818 0
-717 -254 0
289 2415 0
-1093 398 0
-1916 361 0
-2244 150 2246 0
-818 46 820 0
-2242 -259 2243 0
-1810 119 1812 0
-319 -87 0
-2097 141 2099 0
-1049 333 0
-1931 -360 1932 0
-907 911 0
-1873 300 0
-1988 -132 1989 0
-184 2703 0
-349 2895 0
-1154 1155 0
-1739 236 0
-507 508 0
-848 444 0
-2550 -405 2551 0
-802 331 0
-1274 1275 0
-1032 1037 0
-46 839 0
-1710 -110 0
141 2126 0
187 2767 0
-30 29 0
-2307 155 2309 0
-1032 -231 1034 0
-1094 1098 0
444 851 0
-1036 1039 0
-574 575 0
-827 420 828 0
-3071 3072 0
-1341 1342 0
-2629 -179 2631 0
-559 560 0
-2648 2653 0
-554 409 0
-1750 -236 1751 0
-54 961 0
-2791 -190 2793 0
-966 -353 0
-2371 2372 0
-622 396 0
-2895 2897 0
-2357 -390 2358 0
-3138 3139 0
-67 1143 0
-2249 2254 0
-1709 1710 0
226 3122 0
377 3025 0
-2064 -137 2066 0
-164 163 0
-2678 184 2680 0
-1714 1716 0
-2183 -404 2184 0
-2342 389 2344 0
-1542 274 1543 0
-3045 455 0
174 2558 0
-198 2915 0
-1014 -58 1016 0
-1534 1539 0
-887 892 0
-2193 442 0
-2543 2544 0
-2689 365 2690 0
-1910 359 1912 0
121 1850 0
-916 53 918 0
-1076 1077 0
-2364 162 2366 0
327 2857 0
-3073 221 0
-1843 1844 0
-2216 -239 0
-2656 338 2657 0
-1139 1142 0
-1605 -320 1607 0
-2407 166 0
-1385 -283 1386 0
-2211 2212 0
-912 -295 913 0
-1128 1129 0
-481 482 0
-1264 1268 0
-518 10 520 0
-2677 2678 0
-104 1637 0
-2123 -346 2124 0
-2764 -416 2765 0
-4 3 0
-1511 1512 0
-2278 2279 0
-723 281 725 0
-3063 -218 3065 0
-2893 -349 2894 0
-3045 3046 0
-2120 -345 2121 0
-1508 -437 1510 0
-1315 1316 0
-192 2813 0
-2040 2043 0
-2574 -239 2576 0
-2670 -339 0
-470 271 472 0
-131 2005 0
-3127 3128 0
-2345 2346 0
-568 432 0
-916 917 0
-3032 214 3033 0
-936 -316 938 0
-2136 144 2137 0
-454 453 0
-2977 305 0
-2980 -205 2982 0
167 2463 0
-2932 2936 0
-2285 303 0
-138 137 0
-1636 -335 0
-2694 2700 0
-2351 -159 0
-1785 286 1787 0
-2935 202 2936 0
-2593 268 2594 0
-2304 -303 2305 0
-861 48 0
-2476 349 2477 0
-1791 -115 0
1 457 0
-2140 374 0
-301 -137 0
-662 -31 664 0
139 2084 0
-483 5 485 0
-2847 2848 0
-2967 2968 0
-1884 1885 0
-2667 2671 0
-1149 -254 1150 0
-1962 1965 0
-1376 285 1377 0
131 1977 0
134 2019 0
-2729 2732 0
-2914 2915 0
-2589 268 0
-299 -115 0
221 3075 0
-309 -123 0
-1955 -130 1957 0
-892 294 893 0
-52 930 0
-823 824 0
-60 59 0
10 532 0
-654 409 656 0
-643 647 0
-2842 -304 2843 0
-2377 2379 0
-2297 -154 2298 0
-1003 -382 1004 0
-1978 423 1979 0
-1028 232 1029 0
59 1040 0
-428 427 0
-519 10 521 0
-847 443 0
248 0
19 594 0
-962 -55 964 0
-1133 -436 0
-2440 326 2442 0
-2730 -392 0
-1077 368 0
-77 1300 0
-667 -409 668 0
-1681 -107 1683 0
-39 774 0
-2565 176 2567 0
-1819 404 0
-777 781 0
97 1537 0
-1300 -78 0
-2754 2755 0
-1462 -369 0
-1082 1084 0
-1024 1025 0
-1749 1752 0
-1791 1792 0
-2211 -148 2213 0
-854 -443 856 0
-2873 -329 2874 0
-1738 236 1740 0
-625 626 0
-109 1711 0
-2821 2822 0
-1371 284 0
-1874 1878 0
-1858 1859 0
-2874 -330 0
-754 40 756 0
-1390 -284 1391 0
-692 693 0
-257 -133 0
-35 734 0
-843 -421 844 0
-2226 2227 0
-345 -125 0
-2042 -265 2043 0
-2145 -144 0
-34 33 0
-1988 1991 0
-1062 -331 1063 0
-2308 2309 0
219 3071 0
-3133 3135 0
-864 48 866 0
-85 1384 0
-2293 2294 0
-864 865 0
-2451 -168 2453 0
-402 401 0
127 1913 0
-638 381 639 0
-2107 345 2108 0
-1945 388 0
-2637 -310 2638 0
-891 293 892 0
-1510 -438 0
-1901 -323 0
-1249 357 0
-931 932 0
-2480 2481 0
-2481 2485 0
-767 774 0
-2316 337 0
-2551 -406 2552 0
-2573 -176 2575 0
-2743 2744 0
-2228 258 2230 0
-1763 257 0
381 988 0
-70 69 0
-265 2045 0
-2493 170 2495 0
-2547 2548 0
-2308 155 2310 0
-1033 -231 1035 0
-2548 2552 0
-1061 1064 0
-807 -332 0
-223 3102 0
-1123 1125 0
-423 1994 0
-2214 -238 2216 0
-1441 90 1443 0
-2396 -451 2398 0
-2672 -338 2673 0
-1233 -319 0
-662 665 0
-353 -41 0
-2773 455 2774 0
-2215 2216 0
-2184 -405 2185 0
-546 -12 547 0
-2682 2686 0
-2679 184 2681 0
-8 7 0
-2688 364 2689 0
-2583 2584 0
199 2929 0
-2733 -393 0
-2181 -404 2182 0
-1636 1640 0
-796 799 0
-1098 397 1099 0
-1398 307 1400 0
-2831 -193 2833 0
-289 -151 0
-2122 -347 0
-376 375 0
-595 21 597 0
-1629 -104 1631 0
-635 380 0
-1798 -287 0
-2468 347 2470 0
-333 -73 0
-260 0
-2295 -154 0
-2703 -363 2704 0
-2264 -152 2266 0
-2334 2335 0
-2412 2415 0
-1048 332 0
-3138 -429 0
-1626 -103 1628 0
-1379 -85 1381 0
-1890 -124 1891 0
-983 986 0
-2071 -288 0
-421 -65 0
-2428 -166 2429 0
-521 522 0
-368 0
-56 972 0
-44 43 0
-1512 1517 0
-2274 -279 2275 0
208 3004 0
150 2245 0
-1875 1879 0
-2280 154 2282 0
-588 589 0
-3085 3086 0
-798 -343 799 0
-2966 270 0
-2693 -183 2695 0
-573 574 0
-1360 1362 0
-2258 279 2259 0
-2852 327 2853 0
-698 700 0
-1070 62 1072 0
-2894 2896 0
-640 641 0
172 2505 0
-38 746 0
-776 780 0
-178 177 0
-1407 1408 0
-693 -232 0
-1777 114 1779 0
-1485 1488 0
-1399 307 1401 0
-2202 148 2204 0
-1078 -62 1080 0
-235 1750 0
-1008 1009 0
-1041 61 1043 0
-3087 222 3089 0
-3097 3102 0
-2557 2558 0
-126 1922 0
-1622 334 1623 0
-2475 348 2476 0
-2192 441 0
-3023 3024 0
-2150 -371 2151 0
-1795 1797 0
-3101 3104 0
-2190 440 2192 0
-3062 292 0
-2319 2322 0
-2233 -149 2235 0
-2581 176 2583 0
-368 1463 0
-2381 2383 0
-325 -153 0
-1926 -359 1928 0
-1195 1196 0
-2906 2912 0
250 0
-1771 -255 1772 0
-185 2752 0
-1177 1186 0
52 894 0
-2028 136 2029 0
-2691 2692 0
-2449 2454 0
-1987 1990 0
99 1585 0
-18 17 0
-652 32 654 0
-433 677 0
-127 1952 0
-488 293 489 0
-1616 334 0
-2510 -171 2512 0
-2096 2097 0
-561 -14 563 0
-2424 -289 2426 0
-2402 -454 0
-2920 -200 2921 0
-2748 415 2749 0
-1697 1698 0
-177 2602 0
-152 151 0
-2888 2891 0
-1216 1220 0
-2125 -348 0
122 1851 0
201 2935 0
-3008 3011 0
-997 998 0
-2859 330 0
-755 760 0
-1682 -107 1684 0
67 1134 0
-2927 -377 2928 0
-2279 154 2281 0
94 1496 0
-3015 -210 3017 0
-2531 2532 0
-1060 1063 0
-2939 -201 2941 0
-692 -231 0
-173 2549 0
-1122 1124 0
-1109 -398 0
-1577 -100 1579 0
-1734 -450 0
-2115 -142 0
-1429 -88 1431 0
235 1741 0
-2580 -242 0
-2355 2357 0
-2598 2599 0
-855 -443 857 0
-1456 -92 0
-2792 -259 2794 0
-763 314 764 0
-947 953 0
-799 -344 0
-2981 2982 0
-2496 2502 0
-1898 1899 0
-2685 364 2686 0
-1040 60 1042 0
-760 314 761 0
-469 470 0
-2665 2666 0
-1961 1964 0
-1298 -385 1299 0
-1729 -447 1731 0
-355 -61 0
-2728 2731 0
-3103 -339 3104 0
-2826 303 2827 0
-2266 2267 0
33 694 0
-1303 1304 0
-2009 -450 2011 0
-1862 -276 1864 0
-3116 -226 0
-2124 -347 2125 0
-2170 406 0
-885 52 887 0
-953 353 954 0
-2148 2151 0
-2630 2636 0
-1906 1913 0
-2333 2334 0
5 487 0
-904 905 0
-3100 3101 0
-442 441 0
-1671 1672 0
-2971 204 2973 0
-1910 1915 0
-3137 -228 0
-1350 266 0
-2334 -362 0
-126 125 0
-2004 452 0
-323 -39 0
-1971 132 1973 0
-179 2635 0
-95 1545 0
-1746 -235 1748 0
-1651 359 1652 0
-1888 -299 0
-2283 2289 0
-2419 -165 2421 0
68 1135 0
-3136 -394 0
-2752 -186 2754 0
241 3049 0
-1805 1806 0
-493 -6 495 0
-2690 366 0
-989 383 990 0
-258 0
208 2993 0
-1144 -253 1146 0
-2955 2956 0
-2470 2476 0
-975 -356 0
79 1307 0
-1872 1873 0
-150 2238 0
120 1833 0
-1630 1635 0
-1067 -332 1068 0
-1568 298 0
-1891 -299 1892 0
-4 491 0
-2960 2962 0
-1473 1474 0
-544 -12 0
-3022 3023 0
217 3055 0
-1829 -403 0
-3007 3008 0
188 2768 0
-48 47 0
98 1562 0
60 1041 0
-1019 -413 0
-2542 2549 0
-2292 -153 2294 0
38 730 0
-1637 -333 1638 0
-2122 2125 0
-3089 3090 0
-144 2150 0
-628 -395 630 0
-566 431 568 0
-631 30 633 0
-335 2326 0
-416 415 0
-157 2332 0
-211 3035 0
-100 99 0
-2836 2839 0
-2469 347 2471 0
-915 53 917 0
-151 2268 0
-2956 2959 0
-702 704 0
-265 -113 0
-1627 -103 1629 0
-1853 276 0
-1776 -258 0
-1790 1793 0
-3098 -223 3100 0
-1615 333 0
-2471 348 0
-1373 86 1374 0
-77 1291 0
-1012 1013 0
-2561 2562 0
-1779 1780 0
-1120 433 0
-1915 1919 0
-1268 -357 1269 0
-2093 -140 2094 0
-613 614 0
-2865 -327 2867 0
-2162 2163 0
-1380 1381 0
-919 315 0
-176 2574 0
-2929 2930 0
-2386 2391 0
180 2623 0
128 1938 0
187 2747 0
-680 681 0
-1458 -367 0
-1447 1448 0
39 782 0
80 1308 0
-22 21 0
-2758 2761 0
-512 -313 514 0
-1042 61 1044 0
-1087 1094 0
-1262 -76 1263 0
-413 1304 0
163 2403 0
-3063 3064 0
-2151 -372 2152 0
-1235 -318 1236 0
-1546 -97 1548 0
123 124 125 126 323 324 325 326 0
-3048 3049 0
-1580 -298 1582 0
-390 389 0
-2148 -371 2149 0
-2632 -309 2634 0
-1882 1883 0
453 2771 0
455 3046 0
-197 2891 0
-805 -331 807 0
-2541 -172 2543 0
-2435 167 2437 0
-3115 3116 0
445 1311 0
-227 3133 0
-190 0
-98 1557 0
-2958 -428 0
-2141 -142 2143 0
-2786 260 2788 0
-3064 -219 3066 0
-801 331 803 0
56 977 0
-982 985 0
-1302 1303 0
-1183 296 1185 0
-2726 -186 0
-1653 -104 1655 0
-1064 1067 0
-2536 2540 0
-1889 1893 0
-2016 2017 0
181 2675 0
-1369 1370 0
-1565 100 1566 0
-3091 224 0
-779 -314 780 0
-2037 -136 0
-2903 2904 0
-2900 2909 0
-2664 -337 2666 0
-2186 146 2188 0
-2438 2445 0
-1987 -423 0
-2423 2430 0
-128 1933 0
-1421 1422 0
-936 942 0
-532 537 0
-1022 60 1024 0
-2188 2189 0
-2670 2674 0
-2157 145 2159 0
-1 473 0
-61 1061 0
-1759 255 1761 0
-536 539 0
-1022 1023 0
-818 826 0
-617 25 0
-1927 -359 0
-3037 3038 0
240 2571 0
-125 1921 0
-2090 2094 0
-364 363 0
-2532 406 0
-856 -444 858 0
-2906 376 2908 0
-2380 2382 0
-909 913 0
-1208 73 1210 0
49 882 0
35 718 0
-2472 349 0
20 595 0
-1377 286 0
-1132 -435 0
-1156 1157 0
-507 -6 509 0
-1795 -285 1796 0
-1882 -122 1884 0
-1276 1277 0
-1276 383 1278 0
-494 495 0
-1525 -245 0
-80 1303 0
-32 31 0
-2704 -364 2705 0
-2768 2771 0
-1323 82 1325 0
-960 961 0
-751 39 753 0
-1096 1100 0
-62 1064 0
-2588 2594 0
-3025 378 0
-1259 -355 1261 0
-2530 2535 0
-94 1489 0
-1343 1344 0
-561 562 0
-168 2479 0
-1437 -344 1438 0
-1330 236 0
-2877 2878 0
-1406 1409 0
-3006 210 3008 0
-886 52 888 0
-1930 1934 0
-193 2836 0
-2249 277 2251 0
-3051 217 0
245 2015 0
-1599 -101 1601 0
-2518 -373 2519 0
-2235 2237 0
-166 165 0
-1395 1396 0
-3093 224 3094 0
-1230 1234 0
-347 2490 0
-196 2888 0
-1013 414 0
148 2203 0
-955 355 0
-1215 1219 0
-1240 75 1242 0
-2545 2546 0
177 2611 0
-2244 2245 0
-2783 190 2785 0
-369 1805 0
-1157 271 1159 0
-878 881 0
-338 337 0
-1845 1846 0
-3124 228 3126 0
-1720 447 1722 0
-3038 -214 3040 0
-2353 -160 2354 0
-2374 2377 0
-1497 435 0
-2808 -191 2810 0
-752 39 754 0
-1130 1131 0
-2336 -364 0
-483 484 0
-2679 2680 0
-2846 195 2848 0
-427 -173 0
-1470 1477 0
-72 1223 0
241 0
-2848 196 2850 0
-1532 1538 0
-6 5 0
-1362 -266 0
-1474 1479 0
-1351 -82 1353 0
-1876 300 1877 0
-1314 448 0
-1608 -322 0
-1119 433 1121 0
-1397 88 1399 0
-1995 -425 1996 0
-140 2112 0
-1317 1318 0
-2179 -404 0
-535 536 0
-3130 -227 3132 0
-1457 -92 1458 0
-1842 1847 0
-2293 -153 2295 0
-655 656 0
-1173 -273 0
-1137 1141 0
-2078 138 2080 0
-918 919 0
-880 -263 881 0
-2147 2150 0
-1278 384 0
-2406 166 2408 0
-1846 1849 0
-2529 174 2531 0
-602 603 0
-2370 427 2372 0
-2096 140 2098 0
-2328 -337 2329 0
-1353 -83 0
-140 139 0
-722 723 0
-405 -159 0
-565 14 567 0
-570 -431 572 0
-123 1890 0
-1083 -367 0
-1054 334 0
-2945 -407 2946 0
213 3044 0
-1976 1981 0
-2296 2299 0
-2306 154 2308 0
-2176 -403 0
-516 9 518 0
-744 -282 745 0
-2990 2992 0
-2439 325 2441 0
-1761 256 1763 0
-2406 2410 0
-1220 319 1221 0
-375 -183 0
-1553 -98 1554 0
-919 922 0
-255 -81 0
-1886 1887 0
-1239 75 1241 0
-2735 -393 2736 0
-457 458 0
-1224 1225 0
-3121 226 3123 0
-343 -73 0
-2516 -374 0
-283 -59 0
-616 25 618 0
-2069 2072 0
-986 989 0
-112 1745 0
-1210 74 1212 0
-3021 3022 0
-106 1681 0
-1049 1054 0
-2281 301 2283 0
-509 510 0
143 2156 0
-253 -59 0
-795 -342 0
-587 590 0
-732 283 733 0
-623 -24 625 0
-1111 1115 0
-3072 221 3074 0
-2 462 0
-1225 -74 1227 0
443 849 0
-2121 2124 0
71 1206 0
-1547 -97 1549 0
-2061 289 2062 0
-576 577 0
-2083 2086 0
-2810 -192 0
-114 113 0
-643 -380 645 0
-2850 2853 0
-308 1415 0
-1241 1247 0
-441 -161 0
-701 703 0
-2142 -143 2144 0
-2493 2494 0
-2675 182 2677 0
-1936 -362 0
-1488 1491 0
-1026 1027 0
-2369 426 2371 0
-172 2521 0
175 2565 0
-583 307 585 0
-1860 1861 0
-2182 -405 0
218 3056 0
-1124 435 1125 0
-1214 1218 0
-2627 2628 0
-1537 98 1538 0
-2043 2046 0
-542 -11 544 0
-515 8 517 0
-2228 2229 0
-2995 2996 0
-2290 304 0
-2158 145 2160 0
-36 35 0
-924 316 925 0
-1023 1028 0
-1990 1993 0
23 615 0
-2276 152 2278 0
-2438 325 2440 0
-1137 254 1139 0
-1841 -120 1843 0
-2757 2760 0
-503 505 0
-2295 2296 0
-866 867 0
-1065 -332 1066 0
-404 403 0
-24 624 0
-2905 375 2907 0
-2374 -161 2376 0
-2996 -207 2998 0
-88 87 0
-2177 2180 0
-1825 -401 0
-94 1504 0
-789 343 790 0
-933 934 0
-3129 3130 0
-2482 2483 0
-1457 1459 0
-1883 -123 1885 0
169 2493 0
-456 455 0
-695 698 0
-2464 2473 0
133 2018 0
-1180 72 1182 0
-582 20 584 0
59 1022 0
-1825 1827 0
-1767 1768 0
-2550 2554 0
-1381 -86 1383 0
-1063 1066 0
-1108 -397 0
-1733 -449 0
-3110 365 3112 0
-2579 -241 0
-1843 -437 1845 0
-1834 1835 0
-133 2033 0
-1200 -295 1201 0
-746 -281 747 0
243 0
-1997 132 1999 0
-2558 441 2560 0
-2695 -184 2697 0
-2202 2203 0
164 2404 0
-979 58 981 0
-2684 2688 0
-2969 2970 0
-2608 -268 2609 0
-1197 1200 0
-10 9 0
34 695 0
-477 479 0
-2867 2873 0
-3051 3052 0
-2327 2329 0
223 3105 0
-1897 -302 0
-323 -101 0
-645 -381 0
-1664 -360 0
-2389 2390 0
-242 -241 -216 -215 0
-3123 227 3125 0
-378 377 0
-3114 3117 0
-630 -396 0
-147 2232 0
-1384 1387 0
-62 61 0
-2151 2154 0
-1980 425 1981 0
-2358 -391 0
-1246 76 1247 0
-664 666 0
61 1070 0
-255 1773 0
-474 -3 476 0
-727 731 0
-1937 1938 0
-1958 -130 1959 0
-2847 195 2849 0
-920 54 921 0
-422 1717 0
-1110 1114 0
-1985 -132 1987 0
-591 -307 0
-1877 1881 0
-2771 454 2772 0
151 2252 0
-794 798 0
-2818 194 2820 0
-575 576 0
-2246 151 2248 0
-897 296 0
-3024 377 0
-1808 1809 0
-1554 -273 1555 0
-700 702 0
-1941 130 1943 0
-227 3137 0
184 2708 0
-2896 2898 0
-642 643 0
146 2187 0
-180 2660 0
-3050 216 0
-1747 -236 1749 0
-2349 -158 2351 0
-1891 1895 0
-2716 2721 0
-1529 1530 0
164 0
-3108 226 3110 0
-1229 1233 0
-1081 -64 0
-2034 -135 2036 0
-2919 -375 0
-1950 389 1951 0
-524 527 0
-2701 -364 2702 0
-1291 1294 0
-75 1262 0
203 2963 0
-415 -119 0
-2000 2002 0
-2133 372 2135 0
-2614 180 2616 0
-2043 -266 2044 0
-2378 -425 0
-2896 -351 0
-2363 2364 0
-352 351 0
-2667 -182 2668 0
-1453 -90 1455 0
-74 1234 0
-1883 1890 0
-307 -51 0
-2310 2311 0
-1663 1664 0
-117 1803 0
-2278 153 2280 0
419 0
-948 949 0
-71 1222 0
-2497 2498 0
-224 3114 0
-2427 -291 0
-2687 363 2688 0
-1331 1332 0
-275 -113 0
-549 550 0
-2098 2099 0
-1034 -232 1036 0
-2943 2946 0
-132 2006 0
-2685 2689 0
-1924 -128 1926 0
-206 2996 0
-2338 159 2340 0
-1198 1201 0
-736 737 0
-1045 331 1047 0
-1503 1504 0
-1985 1989 0
-1788 288 0
-1700 421 1702 0
-3029 214 3031 0
449 2001 0
-2232 2233 0
-2519 -374 2520 0
-2999 3000 0
-1043 1051 0
-2041 -266 0
-326 325 0
-743 -281 744 0
-225 3117 0
-344 1439 0
-2357 2359 0
-1061 -62 1062 0
-2600 2601 0
-2790 262 0
-2824 2829 0
-950 353 0
-2284 2285 0
-202 2956 0
-287 -121 0
-1073 64 1075 0
-1556 -275 0
-670 -411 0
-471 472 0
-1607 -321 0
-1238 1239 0
-753 759 0
-2005 2006 0
-3086 -312 0
-2730 2733 0
-1058 1062 0
-2590 269 0
-1146 -254 1148 0
-985 988 0
-1305 1306 0
-2296 -301 0
-1925 -128 1927 0
-1914 359 1915 0
-523 524 0
-1218 317 1219 0
-1964 -388 1965 0
-2474 347 2475 0
-2150 2153 0
-2993 329 2994 0
-2597 2602 0
-279 -163 0
-1310 1312 0
-321 -123 0
-1892 1896 0
-1922 -127 1924 0
353 0
-1961 -387 1962 0
-945 952 0
-2892 -349 0
-2197 2199 0
-128 127 0
-1127 -433 1129 0
-710 711 0
-1951 390 0
-2294 -154 2296 0
-2997 -207 2999 0
-2664 2669 0
-2742 2749 0
-1025 232 1027 0
-1119 1122 0
-657 658 0
-2746 2751 0
-2206 2207 0
-1169 -271 0
-2973 2974 0
-1189 297 1190 0
-651 31 653 0
-727 281 728 0
-2381 -426 2382 0
-1564 1566 0
-840 843 0
-1355 -84 1356 0
-1097 399 0
-869 263 0
-3028 213 3030 0
-849 851 0
-1370 284 1372 0
-1212 1213 0
-1075 367 1077 0
-2711 186 2713 0
-747 -282 748 0
-736 -37 738 0
-2631 -180 2633 0
-2867 -328 2869 0
-1583 -299 0
-539 380 0
-434 433 0
-2578 -241 2580 0
-2281 2288 0
-1865 -278 0
72 1207 0
-3030 214 0
-979 983 0
-440 2200 0
-1796 -286 0
-1199 -296 0
-1647 357 1648 0
-934 -315 936 0
-697 36 0
-1331 -82 1333 0
-2441 326 0
-2113 2114 0
-1566 297 0
