p cnf 1000 1892
-102 101 0
-252 15 254 0
-566 -157 567 0
-947 948 0
-563 565 0
-826 829 0
-77 953 0
-420 -28 422 0
-426 427 0
-525 533 0
-51 718 0
-871 92 872 0
-28 27 0
-972 -82 974 0
-630 633 0
-610 611 0
-178 4 179 0
-580 123 582 0
-815 816 0
-148 147 0
-529 535 0
-467 101 0
79 949 0
-113 -39 0
66 866 0
-358 -136 0
-477 -32 479 0
-889 -144 0
-455 -87 457 0
-73 936 0
-109 -33 0
-235 236 0
-357 359 0
-929 133 931 0
15 267 0
-750 55 0
-560 561 0
-63 842 0
-472 102 473 0
-310 -20 312 0
11 233 0
-803 -165 805 0
-162 161 0
-451 89 452 0
12 234 0
-744 745 0
-86 -85 -2 -1 0
-603 604 0
-219 221 0
-908 71 910 0
-933 -73 935 0
-348 137 350 0
-928 929 0
-620 -138 621 0
-709 -116 0
-628 632 0
-956 -80 958 0
-345 346 0
-458 -89 0
-24 23 0
-811 812 0
-690 693 0
-150 149 0
-670 671 0
-651 48 653 0
-228 229 0
-954 -79 956 0
-995 996 0
-155 564 0
166 799 0
-287 -86 289 0
86 281 0
-412 413 0
-321 -101 322 0
-936 938 0
71 912 0
-211 135 213 0
-262 -16 264 0
-674 678 0
-303 99 304 0
-277 85 0
-616 619 0
-76 75 0
-860 -150 0
-994 153 996 0
-675 -105 0
-74 938 0
-217 -8 0
-479 480 0
-299 303 0
-279 281 0
-283 -18 285 0
-2 1 0
-347 136 349 0
-542 545 0
-8 223 0
-122 121 0
-847 848 0
-126 761 0
-335 -22 336 0
-866 871 0
-589 591 0
-647 92 0
-268 161 270 0
-404 407 0
-854 151 855 0
-586 -42 0
-149 862 0
-605 44 606 0
77 945 0
-712 147 0
-982 143 0
-245 -14 247 0
-666 -47 668 0
-413 416 0
-885 -68 0
-471 474 0
-734 738 0
20 303 0
-354 -24 0
-136 135 0
-655 659 0
-787 -139 788 0
-718 719 0
-189 -100 0
-981 983 0
-577 578 0
-70 903 0
77 0
-449 89 0
-496 36 498 0
-918 922 0
-324 21 326 0
-902 903 0
-409 -120 410 0
-495 503 0
87 450 0
-743 -96 745 0
-480 488 0
-644 645 0
-662 105 663 0
-804 -166 806 0
-405 -120 0
-969 970 0
-484 490 0
-70 916 0
50 689 0
-406 409 0
-595 42 597 0
-903 -97 905 0
-386 387 0
-50 49 0
33 492 0
-449 452 0
-588 -121 0
-242 -12 244 0
-984 144 0
-212 135 0
-653 658 0
-162 0
-15 271 0
-453 454 0
-332 335 0
-981 84 982 0
-915 -70 917 0
-516 519 0
52 711 0
-338 -112 0
158 729 0
-153 -67 0
-216 -7 0
-96 95 0
159 730 0
-821 822 0
9 10 95 96 0
-948 80 0
-657 103 658 0
-687 113 688 0
-398 403 0
-44 635 0
-930 133 0
-527 145 529 0
-714 148 715 0
-729 159 0
-888 889 0
-333 -21 0
-446 447 0
61 809 0
-907 912 0
-819 63 821 0
-46 45 0
-378 -108 379 0
-247 -125 0
69 898 0
-110 109 0
-468 34 469 0
-508 513 0
-955 956 0
-39 583 0
-736 97 0
-341 23 343 0
-434 435 0
-32 478 0
-293 294 0
-25 374 0
-853 150 854 0
-512 515 0
-883 -66 0
-391 396 0
-940 74 0
-260 -15 262 0
-361 -137 362 0
151 944 0
-209 8 211 0
-176 177 0
-155 -29 0
-302 101 0
-156 155 0
-439 441 0
79 961 0
-599 44 601 0
-758 -58 0
-626 163 628 0
-62 814 0
-761 -127 0
-307 -18 309 0
91 647 0
-323 20 325 0
-82 81 0
-760 -126 0
-869 870 0
-78 954 0
-95 227 0
168 0
-839 -132 841 0
-391 121 0
-570 -110 0
-52 719 0
-83 997 0
-661 104 662 0
-951 105 952 0
-255 16 256 0
-169 170 0
-737 96 738 0
5 206 0
-896 -159 0
-795 796 0
-631 164 632 0
-201 -6 0
-310 316 0
85 171 0
-353 354 0
2 173 0
-212 213 0
-205 -120 0
-400 -28 402 0
-535 147 536 0
-352 355 0
-537 538 0
1 0
54 750 0
-194 6 196 0
-835 -64 837 0
-280 87 0
-609 140 0
-751 56 0
-879 -93 0
-420 421 0
-1000 -154 0
-978 83 980 0
-526 38 528 0
-861 864 0
71 924 0
-576 121 578 0
-829 132 830 0
-702 708 0
-999 -153 0
-399 400 0
-579 122 581 0
-833 -63 835 0
-724 725 0
-288 -87 290 0
-549 -146 550 0
-7 222 0
-778 -58 780 0
-23 363 0
-68 886 0
-267 268 0
-418 129 419 0
-466 467 0
-646 91 0
-125 -21 0
-546 -145 547 0
-130 129 0
-208 209 0
-975 976 0
-769 139 771 0
-796 798 0
-675 679 0
-740 -54 742 0
-278 86 0
-41 587 0
-214 -6 216 0
-548 -147 0
-858 859 0
-685 113 0
80 962 0
-980 982 0
-859 863 0
-56 55 0
-967 127 968 0
-145 -23 0
-525 38 527 0
-233 12 235 0
-401 402 0
-225 -10 0
-111 -25 0
-311 -20 313 0
-450 88 451 0
-700 -113 702 0
-261 -15 263 0
-585 586 0
-201 203 0
-107 -19 0
25 366 0
-444 445 0
-95 -45 0
-759 -125 0
59 773 0
-584 587 0
-463 468 0
-910 911 0
-13 259 0
-789 792 0
-965 82 966 0
-769 770 0
-327 328 0
-636 -163 638 0
-858 -149 860 0
-652 653 0
-957 -80 959 0
-511 512 0
-667 673 0
-851 852 0
117 755 0
-713 148 0
-157 -43 0
-500 112 0
-817 62 819 0
-652 48 654 0
-836 837 0
-58 759 0
-671 675 0
-253 254 0
-349 137 0
-831 134 0
-292 299 0
-656 660 0
-335 337 0
-689 113 690 0
-116 115 0
-179 99 180 0
56 752 0
-892 159 0
-805 -166 807 0
-66 875 0
-378 380 0
-679 -106 0
-502 36 503 0
115 0
-812 124 0
-947 79 0
-602 608 0
-694 116 0
-645 646 0
-976 -128 0
-928 74 930 0
-676 -103 677 0
-317 -100 318 0
-785 788 0
-765 766 0
-988 -84 990 0
-104 103 0
-975 -127 0
-586 588 0
-465 469 0
-848 853 0
-828 831 0
-340 23 342 0
-507 508 0
-59 784 0
-37 543 0
-289 -87 0
-550 -147 551 0
-366 367 0
-123 -55 0
-571 572 0
-832 833 0
-711 714 0
-30 29 0
-5 202 0
-482 -101 484 0
-896 897 0
-470 102 0
-453 -32 455 0
-745 -97 0
-755 118 0
-698 -50 700 0
-998 -153 1000 0
22 340 0
-638 639 0
-254 256 0
-281 87 282 0
-199 -5 201 0
-492 34 494 0
-758 759 0
-855 152 0
-306 102 0
-439 -162 0
-27 420 0
-882 -94 0
-861 -151 0
-552 38 554 0
-656 48 657 0
-359 361 0
-962 965 0
-841 846 0
-942 943 0
-785 -139 786 0
-500 501 0
-145 549 0
-149 -59 0
-985 -82 987 0
-554 155 556 0
-485 486 0
-164 163 0
-684 685 0
-61 813 0
-730 160 0
-808 -168 0
167 0
-523 37 525 0
82 978 0
-937 -133 0
-368 369 0
-185 -4 0
-331 -20 333 0
-247 250 0
-26 398 0
-807 -167 0
-997 -84 999 0
-246 -14 0
-876 -91 878 0
-824 131 825 0
-347 348 0
-950 952 0
-414 29 0
-529 146 531 0
-552 553 0
-294 20 296 0
-751 752 0
-90 89 0
-40 584 0
-935 937 0
-230 231 0
-649 656 0
-412 28 414 0
-556 156 558 0
-26 375 0
-669 -103 671 0
-153 -75 0
-941 75 0
-414 415 0
-197 120 0
-993 84 995 0
-16 15 0
-618 621 0
-297 298 0
37 552 0
-298 302 0
-393 119 394 0
-701 -113 703 0
-383 27 385 0
157 0
-681 686 0
-481 482 0
131 829 0
-125 760 0
-743 747 0
-685 688 0
-301 305 0
-544 547 0
49 0
-4 3 0
63 847 0
-983 143 984 0
-223 224 0
-82 986 0
-528 145 530 0
-768 775 0
-63 856 0
-257 145 258 0
-590 -122 0
-959 -105 0
-891 159 893 0
-918 -72 920 0
75 942 0
-571 40 573 0
-601 137 603 0
-456 -88 458 0
-818 63 820 0
-501 113 0
-339 22 341 0
-275 276 0
-825 132 0
-362 -138 0
-333 334 0
-582 124 0
-877 881 0
-256 145 0
-208 7 210 0
-452 90 0
-138 137 0
-756 -56 0
51 710 0
-216 217 0
157 728 0
-237 14 0
-17 283 0
-741 746 0
-541 542 0
-597 43 599 0
-2 182 0
-526 527 0
-64 63 0
-895 -159 897 0
32 445 0
-516 -111 517 0
-482 489 0
-181 -2 183 0
-788 791 0
-210 8 212 0
62 818 0
-388 389 0
-462 32 464 0
-793 60 795 0
-522 36 524 0
-782 -60 0
-710 52 712 0
-642 -166 0
1 169 0
-733 95 735 0
-221 -136 0
-271 272 0
-203 -119 0
-875 880 0
-592 594 0
-627 163 629 0
-934 -73 0
-455 456 0
-764 59 766 0
-187 -4 188 0
-624 -140 0
-184 -4 186 0
-493 35 495 0
-255 257 0
-518 521 0
-841 -133 0
-54 741 0
-319 -99 320 0
-515 -112 0
-441 -163 0
-279 86 280 0
-836 -64 838 0
81 965 0
-522 523 0
-60 59 0
-202 204 0
-23 355 0
-124 123 0
-129 -35 0
-849 149 851 0
91 871 0
-762 -128 0
-834 -63 836 0
91 0
-784 787 0
-382 26 384 0
-705 -50 706 0
-723 -149 725 0
-890 891 0
-425 -129 427 0
-30 437 0
-448 449 0
-639 -165 0
-307 308 0
-186 189 0
-153 -43 0
47 656 0
-547 -146 548 0
-531 536 0
-788 -140 789 0
-190 191 0
-957 958 0
-413 29 415 0
-363 -24 0
-374 375 0
-821 64 0
1 172 0
-699 700 0
-5 214 0
34 471 0
-600 137 602 0
-38 37 0
-558 559 0
-553 155 555 0
-437 440 0
-893 160 0
41 595 0
-19 315 0
-883 884 0
-242 243 0
-222 -8 0
-463 33 465 0
-223 -153 0
-965 967 0
-220 -135 221 0
-402 -119 0
-625 626 0
-949 80 950 0
-299 20 300 0
-183 184 0
-24 357 0
-390 120 0
-469 101 470 0
67 890 0
-84 83 0
-369 108 371 0
-809 810 0
-688 691 0
-175 4 177 0
-296 99 298 0
-517 -112 518 0
94 0
-254 16 0
-592 -123 0
-55 756 0
-916 -71 918 0
-131 -57 0
-312 -99 314 0
-228 10 0
-771 140 0
-440 -162 441 0
-691 694 0
-876 877 0
-706 -113 707 0
-649 47 651 0
-898 70 900 0
-135 359 0
-979 83 0
-34 33 0
-542 -145 0
-312 317 0
-759 760 0
-98 97 0
82 967 0
-175 179 0
-539 540 0
-511 -36 0
-678 -105 679 0
-360 362 0
-617 620 0
-880 -92 881 0
-943 944 0
-822 825 0
-847 64 849 0
-533 145 534 0
-653 103 655 0
-422 423 0
-641 -165 642 0
-991 -143 0
-568 -40 0
-700 707 0
-417 129 0
-697 -49 699 0
-774 139 775 0
-825 828 0
-704 709 0
-457 -88 0
-144 143 0
-271 -16 273 0
-868 872 0
-638 -164 0
-695 -48 697 0
-989 990 0
-532 38 533 0
-415 30 0
63 823 0
-21 335 0
-820 64 822 0
-250 -126 0
-963 81 0
-161 440 0
-12 11 0
-658 104 659 0
-70 69 0
-736 739 0
-173 178 0
107 232 0
-433 163 435 0
-798 800 0
-584 -41 586 0
-833 842 0
60 794 0
-740 741 0
-356 358 0
-619 622 0
-599 600 0
-136 361 0
-1 181 0
-982 984 0
-497 504 0
-58 57 0
-924 925 0
-341 342 0
159 0
-273 -161 0
-20 19 0
45 643 0
-428 30 430 0
72 925 0
-591 -122 592 0
-666 667 0
46 644 0
-545 548 0
-408 -121 0
68 891 0
-832 -62 834 0
-388 119 390 0
-991 992 0
-64 857 0
-870 873 0
-585 -41 0
-686 50 687 0
-718 -52 720 0
-877 -92 879 0
-8 7 0
-407 410 0
-822 131 0
-72 71 0
-28 406 0
-22 337 0
-539 -37 541 0
-869 92 0
-611 616 0
-712 713 0
-334 336 0
-107 378 0
-162 442 0
-865 66 867 0
-313 -99 0
-875 -91 877 0
-917 918 0
-357 -135 358 0
-886 -141 0
-403 -28 404 0
-12 243 0
-226 -95 0
-613 -44 615 0
-16 272 0
-344 135 346 0
-188 -99 189 0
-294 300 0
-118 117 0
-622 -138 623 0
-800 168 0
-963 964 0
-830 133 831 0
-176 4 0
-604 609 0
-44 43 0
-35 537 0
26 367 0
-790 -140 791 0
81 977 0
-232 108 0
-365 -156 0
28 413 0
-593 -123 594 0
34 493 0
39 571 0
-467 470 0
-850 854 0
-783 -139 0
-573 574 0
-215 -7 217 0
-95 -31 0
-111 519 0
-121 591 0
-373 110 0
-898 899 0
-610 -42 612 0
-637 -164 639 0
-757 758 0
-545 -146 0
-955 -79 957 0
-777 142 0
-174 175 0
-48 696 0
-843 -131 844 0
-256 258 0
-374 -26 376 0
-639 642 0
-275 18 277 0
-440 442 0
-92 -91 -90 -89 -46 -45 0
-659 663 0
-204 -119 205 0
-243 -13 245 0
-382 383 0
-823 826 0
-276 85 278 0
-25 397 0
62 810 0
-949 951 0
93 0
-136 0
-750 751 0
73 940 0
-428 429 0
-71 932 0
-342 24 344 0
-492 493 0
-753 754 0
70 907 0
-92 91 0
-153 224 0
-84 998 0
-387 119 389 0
-817 818 0
-170 171 0
-196 119 0
-540 -38 542 0
-36 516 0
-515 518 0
-309 -19 311 0
-291 18 293 0
-637 641 0
-732 95 734 0
-863 -151 864 0
-765 59 767 0
-538 -37 540 0
-18 17 0
-884 885 0
-237 238 0
-606 137 607 0
-757 -57 0
-300 99 301 0
-363 364 0
-325 21 327 0
-222 223 0
-562 563 0
-726 52 0
-118 -117 -116 -115 -56 -55 -54 -53 0
-589 -121 590 0
52 727 0
-272 -161 274 0
-536 148 0
-465 34 467 0
-153 -51 0
89 645 0
-731 732 0
-523 532 0
-930 931 0
-289 290 0
6 207 0
-60 787 0
-38 546 0
-791 -141 792 0
-894 -68 896 0
-614 615 0
-770 776 0
-284 -85 286 0
-475 103 476 0
-813 814 0
-735 96 0
-486 -103 0
-152 151 0
-202 -6 203 0
-487 -34 488 0
-997 998 0
-177 99 0
-943 151 0
113 692 0
-611 -43 613 0
73 0
-234 239 0
-878 -92 0
-443 -164 0
-909 72 911 0
-238 125 0
-78 77 0
-865 866 0
-258 146 0
-985 986 0
-920 -117 0
-784 -60 785 0
-20 319 0
-464 33 466 0
50 0
-911 117 0
-41 610 0
-626 631 0
-727 728 0
-266 -146 0
-285 286 0
-33 507 0
-434 163 0
-367 107 369 0
-265 -145 0
-349 350 0
-174 3 176 0
-244 -13 246 0
-445 87 447 0
-856 -64 858 0
-797 166 798 0
-786 -140 0
-715 149 0
-964 82 0
-591 593 0
-17 307 0
-872 93 873 0
-615 -137 0
30 418 0
-330 112 0
-917 -71 919 0
-326 22 328 0
-635 -163 637 0
-557 157 559 0
-351 -22 353 0
-196 197 0
-577 121 579 0
-11 242 0
-350 138 0
-650 47 652 0
-377 -108 0
-720 721 0
-814 -123 816 0
-251 14 253 0
57 763 0
-540 544 0
-904 905 0
-263 264 0
-783 786 0
-462 463 0
-422 -29 424 0
-308 -19 310 0
-224 -154 0
58 764 0
-559 158 0
-809 62 811 0
-794 165 796 0
-126 125 0
-646 647 0
-355 -24 356 0
-594 -124 0
-971 972 0
-587 589 0
-645 90 0
-925 73 927 0
-297 99 0
-408 411 0
-190 4 192 0
-137 -29 0
-775 140 776 0
-35 513 0
-309 310 0
-870 93 0
-444 32 446 0
65 865 0
-52 51 0
-6 0
-731 54 733 0
-192 193 0
-625 44 627 0
-950 105 0
-916 921 0
-376 377 0
-125 -41 0
-137 622 0
-474 102 475 0
-581 582 0
-654 103 0
-436 -30 438 0
-780 781 0
-874 -66 876 0
-567 -158 0
-304 100 305 0
-538 543 0
-859 -150 861 0
151 0
-519 -112 520 0
-701 702 0
-121 -35 0
-259 260 0
-117 -65 0
-596 43 598 0
-28 421 0
-323 324 0
-301 100 302 0
-182 -3 184 0
-885 886 0
-574 42 576 0
47 680 0
-565 567 0
-992 -144 0
48 681 0
-480 -34 482 0
-253 15 0
-36 538 0
-627 628 0
-366 26 368 0
-514 -111 515 0
-185 186 0
45 648 0
-447 451 0
-48 47 0
-617 -137 618 0
-792 -142 0
-3 198 0
29 416 0
78 946 0
-651 657 0
-112 111 0
25 382 0
-124 0
-230 12 0
-318 -101 0
-621 -139 0
-767 60 769 0
-878 879 0
-628 164 630 0
-436 437 0
-438 -161 0
-866 91 868 0
-295 296 0
-153 -29 0
-671 -104 0
-942 76 0
-512 -111 0
-761 762 0
-944 152 0
-65 874 0
-377 379 0
-100 99 0
17 275 0
-441 443 0
-158 157 0
-811 123 0
-555 156 557 0
-945 946 0
-824 827 0
-970 -81 972 0
-663 106 0
-71 921 0
23 24 155 156 0
-274 -162 0
-507 -34 509 0
39 40 109 110 0
-26 25 0
-445 450 0
-488 -101 489 0
-680 48 682 0
101 474 0
-868 92 870 0
-146 145 0
-42 611 0
-789 -141 0
-133 -65 0
-913 117 914 0
-668 -48 670 0
-87 459 0
-72 933 0
-385 393 0
-305 101 306 0
-618 -138 0
-754 755 0
-935 -74 0
-754 117 0
-958 -105 960 0
-797 799 0
-845 -133 846 0
-888 -143 0
-355 357 0
-924 72 926 0
-156 566 0
-314 -100 0
-80 970 0
-437 -161 439 0
-496 497 0
-375 378 0
-887 -142 0
-227 -96 0
38 553 0
-135 -13 0
-31 453 0
-316 320 0
-680 681 0
-508 -35 510 0
-601 602 0
-217 219 0
-379 -109 0
-813 -62 815 0
-995 153 0
-18 284 0
-49 705 0
85 0
-343 344 0
-320 -100 321 0
-22 21 0
-719 -147 721 0
-564 -156 565 0
-738 97 739 0
-295 20 297 0
-86 85 0
-684 50 0
-668 669 0
-905 -98 0
-547 550 0
-9 225 0
-226 227 0
-632 165 633 0
-383 392 0
-904 -97 0
-67 894 0
-160 -159 -158 -157 -52 -51 0
70 899 0
27 412 0
-269 270 0
-387 394 0
-240 125 241 0
-346 136 348 0
-672 676 0
-735 736 0
-473 476 0
-123 -49 0
-415 417 0
-132 131 0
55 56 57 58 125 126 127 128 0
-329 111 0
-483 -101 485 0
-356 -135 0
-818 823 0
-919 920 0
-46 665 0
-778 779 0
147 714 0
-473 103 0
-477 478 0
-672 -48 673 0
-810 123 812 0
-881 -93 882 0
-562 -155 0
-215 218 0
9 228 0
-945 78 947 0
75 0
-699 -50 701 0
18 276 0
-38 561 0
-614 -44 0
-143 889 0
-634 -44 636 0
-696 -49 698 0
-153 -59 0
13 239 0
-231 107 0
-402 405 0
-921 -72 922 0
-728 729 0
-459 -88 460 0
-461 -90 0
-147 -43 0
-486 491 0
37 532 0
-127 -65 0
-203 205 0
-332 -21 334 0
49 686 0
-143 -73 0
-34 508 0
-771 772 0
-27 403 0
-971 -81 973 0
-922 -117 923 0
-329 330 0
-911 914 0
-469 472 0
-837 -131 839 0
-97 -65 0
-105 -69 0
-654 655 0
-292 19 294 0
-406 -119 407 0
-47 695 0
-285 -85 287 0
69 906 0
-799 167 800 0
-979 980 0
-838 839 0
-581 123 0
-604 139 0
-978 981 0
-857 862 0
-802 -165 804 0
-840 -132 0
-658 662 0
-572 41 574 0
-612 -43 614 0
-565 -157 0
-47 672 0
-200 201 0
27 392 0
-6 215 0
-398 -27 400 0
-65 883 0
-400 404 0
-560 -38 562 0
-827 132 828 0
-384 385 0
-39 568 0
-236 14 238 0
-704 -115 0
-568 569 0
54 732 0
-787 790 0
-411 -122 0
-767 768 0
-909 913 0
-106 105 0
-427 -130 0
51 726 0
-588 590 0
-286 -86 288 0
-752 753 0
-267 16 269 0
-426 -129 0
-714 716 0
-396 122 0
-897 -160 0
-752 115 0
-249 -125 250 0
-544 -145 545 0
-902 -70 904 0
-380 -109 381 0
-198 -4 200 0
-514 517 0
-494 495 0
-834 835 0
-664 -46 666 0
-32 31 0
-966 127 0
-229 11 0
-989 -84 991 0
-819 820 0
53 749 0
-314 318 0
-977 82 979 0
-608 139 609 0
-770 140 772 0
29 428 0
117 0
-206 6 208 0
11 230 0
-980 84 0
4 191 0
-727 157 0
-886 887 0
9 0
-3 187 0
-919 -72 0
-166 165 0
130 0
-218 -8 219 0
-29 436 0
-953 954 0
-460 -89 461 0
-370 371 0
-229 230 0
-932 933 0
-926 73 928 0
-815 -123 0
-119 -11 0
-695 696 0
-554 555 0
48 660 0
107 0
-125 -49 0
44 626 0
-154 153 0
-937 939 0
-252 255 0
-354 356 0
-835 843 0
-180 100 0
-806 -167 808 0
-946 79 948 0
-395 121 396 0
-999 1000 0
-899 97 901 0
-692 114 693 0
-630 165 0
-282 88 0
-839 845 0
-846 -134 0
-953 -78 955 0
-690 114 691 0
-620 623 0
-80 79 0
-236 240 0
-504 112 505 0
-805 806 0
-300 304 0
-726 727 0
-8 220 0
-938 -133 939 0
-914 118 0
-483 484 0
-183 -3 185 0
-623 -139 624 0
83 981 0
7 8 153 154 0
-127 762 0
-119 -21 0
-687 690 0
-546 549 0
-6 5 0
-960 -106 0
-19 331 0
-793 794 0
-351 352 0
-210 211 0
-969 -80 971 0
-235 13 237 0
-541 -38 0
-977 978 0
19 299 0
-269 161 0
-851 150 0
-717 150 0
-108 380 0
-153 -37 0
-744 -96 0
-681 49 683 0
-141 -63 0
-860 861 0
-749 54 0
-248 -14 249 0
-837 844 0
30 429 0
-277 278 0
-322 -102 0
-45 664 0
55 751 0
-296 301 0
-397 398 0
-276 279 0
-867 91 869 0
-218 220 0
-801 802 0
-140 139 0
-766 60 768 0
-973 -82 975 0
-722 723 0
-716 149 717 0
51 0
-906 907 0
-524 37 526 0
-192 5 194 0
-464 465 0
-781 -60 783 0
-644 89 0
-974 -127 976 0
-548 551 0
-10 226 0
-528 529 0
-66 65 0
-648 649 0
-206 207 0
-779 -59 781 0
13 251 0
-404 -119 405 0
-973 974 0
-852 855 0
-497 111 499 0
-673 677 0
-390 391 0
-595 596 0
-44 619 0
-856 857 0
64 826 0
-54 53 0
-273 274 0
3 178 0
-598 44 600 0
-163 640 0
-457 458 0
-21 351 0
-278 280 0
-392 28 393 0
-782 783 0
-394 120 395 0
-57 778 0
-722 -148 724 0
-524 525 0
-403 406 0
-923 -118 0
-826 131 827 0
-509 510 0
-364 -155 0
-849 850 0
-720 -147 722 0
-429 161 431 0
-494 35 496 0
-961 80 963 0
-890 68 892 0
-741 -95 743 0
-892 893 0
-251 252 0
-470 473 0
-713 715 0
-352 -23 354 0
-616 -44 617 0
-69 902 0
-448 88 0
-316 -99 317 0
-6 204 0
-114 113 0
-454 -87 456 0
-634 635 0
-513 516 0
-399 -27 401 0
-551 -148 0
-760 761 0
-484 -102 486 0
-959 960 0
-795 165 0
-438 439 0
-381 -110 0
-431 162 433 0
-850 150 852 0
-371 109 373 0
-964 966 0
-40 39 0
-505 113 506 0
-69 915 0
-682 49 684 0
-160 159 0
-478 487 0
-421 -29 423 0
-244 245 0
-152 -151 -76 -75 -74 -73 0
-171 86 0
-40 569 0
-259 -14 261 0
-583 -40 585 0
129 0
-125 -27 0
-364 365 0
-569 570 0
-328 111 330 0
74 941 0
-184 188 0
-894 895 0
14 252 0
-640 -164 641 0
-900 97 0
-311 312 0
-619 -137 620 0
-753 116 0
-478 -33 480 0
-772 777 0
-385 28 387 0
-108 -107 -12 -11 -10 -9 0
-372 109 0
2 170 0
-145 -29 0
-57 758 0
-756 757 0
31 462 0
-263 -16 265 0
-734 96 736 0
-520 -113 521 0
-506 114 0
-677 -104 678 0
-151 -67 0
-315 319 0
26 383 0
-430 161 432 0
-884 -67 0
32 463 0
-852 151 0
-587 -42 588 0
-940 941 0
-498 499 0
-43 634 0
-563 -156 0
-36 35 0
-629 164 0
-191 5 193 0
-318 322 0
-682 683 0
-776 141 777 0
-561 564 0
-573 41 575 0
-936 -74 937 0
-728 158 0
-688 114 0
163 631 0
-633 166 0
-857 -149 859 0
-225 226 0
-48 676 0
-745 748 0
11 0
-424 425 0
-153 -15 0
90 646 0
-182 187 0
-283 284 0
-948 950 0
-986 -83 988 0
-343 24 345 0
-234 13 236 0
-749 750 0
-88 87 0
-137 -35 0
132 0
149 853 0
-543 -38 544 0
-31 477 0
-485 -102 0
-721 -148 723 0
165 797 0
-435 164 0
83 993 0
85 279 0
84 994 0
-42 589 0
-14 13 0
-233 234 0
-18 308 0
-417 419 0
-476 104 0
-134 133 0
-173 3 175 0
-59 801 0
-37 560 0
-879 882 0
59 793 0
-768 139 770 0
-820 824 0
-142 888 0
-742 743 0
-358 360 0
-621 624 0
42 596 0
-698 706 0
-946 949 0
-702 -114 704 0
-926 927 0
64 848 0
-530 146 0
-693 115 694 0
-58 779 0
-370 108 372 0
-962 81 964 0
-22 0
-139 790 0
-499 112 501 0
-468 471 0
53 731 0
-20 332 0
-561 -155 563 0
-667 -48 669 0
76 943 0
-993 994 0
-331 332 0
-270 162 0
-10 9 0
-298 100 0
-308 315 0
-172 2 174 0
-603 138 0
-74 73 0
-912 72 913 0
-214 215 0
-336 338 0
-952 106 0
-397 -26 399 0
-376 -107 0
16 268 0
148 716 0
-840 841 0
76 0
-696 705 0
-746 -96 747 0
-683 50 685 0
-509 -35 511 0
-62 61 0
10 229 0
3 190 0
-120 119 0
-67 885 0
-471 101 472 0
-786 789 0
53 0
-842 -64 843 0
-442 -163 443 0
89 0
-264 -145 266 0
-927 74 929 0
-345 135 347 0
-602 138 604 0
115 753 0
-108 107 0
-590 592 0
-732 737 0
116 754 0
-195 119 197 0
-648 46 650 0
-491 -104 0
-62 833 0
-816 -124 0
-513 -36 514 0
-575 576 0
-423 -30 425 0
-33 487 0
-360 -137 0
-493 502 0
43 625 0
-725 -150 0
-920 923 0
-900 901 0
33 468 0
-22 352 0
-724 -149 0
-968 128 0
-798 167 0
-907 71 909 0
-598 606 0
-521 -114 0
-334 -22 0
-643 46 0
-416 30 417 0
-199 202 0
-410 -121 411 0
-170 85 0
46 649 0
-660 103 661 0
-407 -120 408 0
-707 -114 708 0
-168 167 0
-389 120 391 0
-127 -61 0
-290 -88 0
-368 107 370 0
-372 373 0
-780 -59 782 0
-231 232 0
-446 87 448 0
-353 -23 0
-91 880 0
-315 -20 316 0
-498 111 500 0
-697 698 0
-862 -150 863 0
-119 409 0
-556 557 0
-537 -36 539 0
-105 -65 0
-94 93 0
-670 -103 0
-796 166 0
-575 42 577 0
-906 70 908 0
-177 180 0
-596 605 0
-517 520 0
-518 -113 0
-375 -107 377 0
-53 740 0
-32 454 0
-181 182 0
-600 607 0
-159 -59 0
-7 218 0
-939 -134 0
-501 506 0
-419 130 0
-510 -36 512 0
-564 566 0
-827 830 0
-807 808 0
-686 689 0
-99 -9 0
-302 306 0
-127 -71 0
-996 154 0
131 0
43 605 0
-243 248 0
-689 692 0
-901 98 0
95 737 0
-665 -47 667 0
40 572 0
-359 -136 360 0
-510 514 0
-773 60 774 0
-389 395 0
-874 875 0
-733 734 0
-432 433 0
-291 292 0
-742 -95 744 0
-68 895 0
15 255 0
-772 141 0
-495 36 497 0
-109 570 0
-635 640 0
-873 94 0
-615 618 0
-941 942 0
-416 418 0
-823 64 824 0
-489 -102 490 0
-336 -111 0
-129 -41 0
-241 126 0
-848 149 850 0
-987 -83 989 0
-499 505 0
-169 2 0
-141 887 0
-432 162 434 0
-207 7 209 0
-424 -30 426 0
-125 -35 0
-803 804 0
-142 141 0
-867 868 0
19 323 0
-447 88 449 0
-987 988 0
-95 746 0
84 983 0
20 324 0
-763 58 765 0
-245 249 0
-764 773 0
-530 531 0
-481 -34 483 0
-729 730 0
-711 147 713 0
-68 67 0
17 291 0
-934 935 0
-287 288 0
-933 936 0
-708 -115 709 0
-612 613 0
-479 -33 481 0
-613 617 0
-386 28 388 0
-597 598 0
-79 969 0
-60 802 0
-466 34 0
-655 104 0
-339 340 0
-198 199 0
-664 665 0
-280 282 0
-543 546 0
-153 -23 0
-659 105 0
-558 157 0
-81 985 0
-337 -111 338 0
35 522 0
-643 644 0
-607 138 608 0
-531 147 0
-683 687 0
-66 884 0
-673 -103 674 0
36 523 0
-265 266 0
-569 -109 0
31 444 0
-405 408 0
-766 774 0
-128 127 0
61 817 0
-24 364 0
-710 711 0
16 257 0
-915 916 0
-4 199 0
-794 797 0
-200 -5 0
-43 616 0
-219 -135 0
-472 475 0
-715 717 0
80 951 0
-61 832 0
-748 -98 0
-122 593 0
-636 637 0
-194 195 0
-961 962 0
-456 460 0
78 0
-674 -104 675 0
-864 -152 0
-490 -103 491 0
-583 584 0
-781 785 0
-932 -72 934 0
-13 248 0
-703 704 0
-966 968 0
-42 41 0
-908 909 0
-990 -143 992 0
-261 262 0
-703 -114 0
-325 326 0
-887 888 0
-246 247 0
-665 672 0
-155 365 0
55 0
-838 -131 840 0
-650 651 0
-293 19 295 0
-503 111 504 0
-534 146 535 0
-14 260 0
-430 431 0
18 292 0
-669 674 0
-629 630 0
65 66 67 68 141 142 143 144 0
-213 136 0
-56 757 0
-527 534 0
-313 314 0
21 339 0
-172 173 0
-401 -28 0
-327 22 329 0
35 502 0
-828 133 0
-193 6 195 0
-739 98 0
-95 -17 0
-454 459 0
-186 -99 0
-317 321 0
12 231 0
-657 661 0
-779 784 0
-910 72 0
-579 580 0
-458 461 0
-578 122 580 0
-801 -60 803 0
-384 27 386 0
-239 14 240 0
-238 241 0
-747 -97 748 0
-844 -132 845 0
-105 -53 0
-931 134 0
45 0
-763 764 0
-691 115 0
-379 381 0
