p cnf 920 1752
-102 101 0
-358 26 360 0
-889 890 0
-748 749 0
-559 -133 561 0
-94 -93 -12 -11 0
-498 -40 500 0
-331 -95 0
-868 869 0
-711 60 713 0
-305 308 0
-907 -78 909 0
-367 -27 369 0
-374 28 0
-400 121 402 0
-446 448 0
-147 -73 0
-28 27 0
36 457 0
-76 890 0
-489 492 0
71 72 73 74 111 112 0
-551 135 552 0
-168 169 0
-431 433 0
-148 147 0
-244 16 245 0
143 0
-693 698 0
-151 752 0
-858 -162 860 0
-635 639 0
-67 831 0
-566 -135 567 0
-834 838 0
-117 -73 0
-557 558 0
155 306 0
-21 309 0
-818 819 0
-697 700 0
-677 678 0
-628 125 0
-618 -110 620 0
35 0
-72 873 0
-419 420 0
-901 905 0
-519 -149 521 0
-683 99 685 0
-162 161 0
-607 52 609 0
-638 -54 639 0
-635 -54 637 0
27 362 0
15 244 0
-890 -101 892 0
-686 691 0
-899 79 901 0
-451 36 0
-306 156 307 0
-24 23 0
-654 -144 0
-835 -70 0
-150 149 0
-670 671 0
-549 552 0
-621 -111 0
-790 -65 792 0
-149 522 0
-681 58 683 0
-350 352 0
-291 -20 293 0
-759 63 761 0
-828 146 829 0
-611 613 0
-733 736 0
-695 699 0
-184 4 186 0
79 916 0
-474 -107 476 0
-737 738 0
-359 27 361 0
-353 355 0
-76 75 0
-49 586 0
63 764 0
-103 -23 0
-280 281 0
-165 2 0
-111 876 0
-735 -137 736 0
-3 180 0
23 318 0
-676 -92 0
-804 805 0
-95 -47 0
24 319 0
-562 567 0
-663 664 0
-2 1 0
-584 585 0
-179 -4 0
-732 -136 733 0
-122 121 0
-264 266 0
-604 606 0
-532 -43 0
-483 487 0
-49 599 0
117 897 0
-44 534 0
-326 327 0
-864 72 866 0
-853 163 854 0
-388 -103 390 0
-283 288 0
-758 62 760 0
43 538 0
-39 505 0
-137 -67 0
8 208 0
-880 154 0
-331 333 0
-706 -102 0
-744 153 745 0
1 168 0
-835 836 0
-398 32 400 0
-906 138 0
-292 297 0
-269 -83 271 0
-5 210 0
-136 135 0
-97 -17 0
-18 276 0
77 0
-39 518 0
-902 903 0
-660 665 0
75 885 0
-198 201 0
-664 667 0
-325 96 0
-202 203 0
-465 467 0
-208 119 209 0
-852 162 853 0
-446 -158 0
-265 85 266 0
-74 882 0
-386 387 0
-207 209 0
-219 155 0
-711 712 0
-743 152 744 0
60 738 0
-50 49 0
-570 571 0
-88 -87 -86 -85 -36 -35 0
-352 -113 353 0
-625 53 627 0
-895 896 0
-713 135 715 0
-453 454 0
80 917 0
-767 -62 769 0
-382 105 0
-131 590 0
81 918 0
-502 -128 504 0
-195 196 0
-41 0
-96 95 0
-841 844 0
-700 703 0
-379 380 0
-386 -30 388 0
-372 -133 0
-14 249 0
-29 386 0
-178 -3 0
19 282 0
-723 728 0
-113 -17 0
-310 -155 312 0
-51 632 0
-703 706 0
-833 -69 835 0
-568 48 570 0
-111 -57 0
20 283 0
-19 291 0
-849 853 0
-105 -41 0
-46 45 0
-443 -34 445 0
-751 -153 0
-110 109 0
-389 -104 391 0
-293 294 0
-712 719 0
-595 160 597 0
-871 -92 0
-406 124 0
-217 -120 0
-198 -107 0
-455 88 0
-837 840 0
-716 721 0
-176 177 0
-156 155 0
155 0
-802 803 0
-360 361 0
108 466 0
3 184 0
-219 220 0
-181 183 0
-42 527 0
-806 131 0
-413 -121 414 0
-685 686 0
-597 161 0
-763 766 0
-642 647 0
-194 -5 196 0
-82 81 0
-345 116 0
-119 279 0
-286 22 0
-768 773 0
-799 -118 0
-427 428 0
-741 152 0
-185 190 0
-286 287 0
-285 22 287 0
-798 -117 0
-95 757 0
-227 229 0
-490 493 0
27 374 0
-349 -26 0
-763 105 0
-54 651 0
15 256 0
45 544 0
-442 160 0
-417 -123 418 0
-411 413 0
-436 157 438 0
-780 66 781 0
-212 213 0
-158 449 0
1 0
-447 -158 448 0
-279 280 0
-399 400 0
-361 363 0
-889 -76 891 0
-805 131 807 0
-603 -160 604 0
-329 -94 0
-724 725 0
-715 136 0
-518 -40 520 0
-70 840 0
-788 789 0
76 894 0
-328 -93 0
-267 268 0
-486 489 0
-150 524 0
-749 753 0
-95 -35 0
-668 -56 670 0
32 420 0
-413 415 0
-130 129 0
-612 614 0
-901 80 903 0
-855 856 0
-655 658 0
-554 -45 556 0
-212 -7 214 0
-334 335 0
-193 194 0
-533 534 0
-84 -83 -2 -1 0
41 42 97 98 99 100 0
-518 519 0
-56 693 0
-56 55 0
-32 0
-459 461 0
-401 402 0
-200 -107 201 0
-585 586 0
-330 -94 331 0
-203 7 205 0
-570 87 572 0
-769 770 0
-754 -154 0
-399 32 401 0
-186 187 0
-549 135 0
-435 34 437 0
-900 79 902 0
29 377 0
-652 653 0
-747 -151 749 0
-63 788 0
38 462 0
-262 84 0
-730 733 0
17 259 0
-539 45 541 0
-188 6 0
-671 675 0
-115 -41 0
-176 -2 178 0
-600 -159 602 0
-315 -156 316 0
-578 579 0
-437 438 0
-116 115 0
-765 105 766 0
-40 519 0
-577 580 0
-649 146 0
79 0
-762 763 0
-554 563 0
-550 134 551 0
-320 321 0
-652 -143 654 0
-215 -119 217 0
-865 91 867 0
-797 -117 799 0
-645 646 0
-680 688 0
-313 -156 0
-169 3 171 0
-402 122 404 0
-726 -60 0
-104 103 0
-41 531 0
-650 -54 652 0
-586 -50 0
-220 156 0
-127 -25 0
-408 -31 410 0
-366 367 0
-115 -51 0
-177 -3 179 0
-916 80 0
-342 114 344 0
-259 18 261 0
-69 855 0
-577 -87 579 0
-30 29 0
-855 -70 857 0
-896 897 0
-493 129 494 0
-18 268 0
-461 107 0
-234 235 0
57 707 0
-574 575 0
-653 -144 655 0
-717 60 718 0
-196 -6 198 0
-559 560 0
-661 89 663 0
-758 759 0
-637 640 0
-617 618 0
-579 581 0
34 436 0
-454 87 0
-168 2 170 0
46 0
-809 -67 811 0
82 0
-393 -105 394 0
-52 633 0
-31 427 0
-164 163 0
-781 115 0
-297 -22 298 0
-810 811 0
-690 101 691 0
-782 115 783 0
-761 64 763 0
-908 913 0
-368 369 0
-20 292 0
-341 114 343 0
-97 -35 0
-610 612 0
-562 -135 0
-36 469 0
-611 110 612 0
-90 89 0
-672 673 0
-700 -100 0
-877 878 0
-483 40 485 0
-623 52 625 0
-352 354 0
-674 -90 675 0
-210 -6 212 0
-320 93 322 0
-619 620 0
-59 728 0
-739 740 0
-16 15 0
-135 -49 0
-698 -58 699 0
-26 352 0
93 223 0
161 852 0
-340 341 0
-603 605 0
-830 148 0
-725 -60 727 0
-448 -159 0
-66 809 0
-182 -97 183 0
-806 807 0
-231 104 0
-837 -70 838 0
-558 -133 560 0
-544 547 0
-4 3 0
-870 871 0
-484 40 0
-742 153 0
-875 -111 0
-311 -155 313 0
-811 813 0
-407 408 0
-401 121 403 0
-228 230 0
-912 -137 0
-511 149 513 0
-591 592 0
-412 414 0
-916 917 0
-275 276 0
11 224 0
-474 475 0
-848 161 850 0
147 0
-777 65 779 0
-522 -150 523 0
12 225 0
-101 -61 0
-138 137 0
-294 298 0
-891 -101 0
-216 217 0
-739 151 741 0
-819 827 0
-342 343 0
-722 -58 724 0
-246 113 247 0
-373 -134 0
-526 527 0
-783 785 0
-590 -132 0
-662 666 0
-67 812 0
-624 629 0
47 568 0
-64 63 0
-716 137 0
-225 13 227 0
-589 -131 0
-503 -128 0
-204 205 0
147 920 0
-151 -49 0
-195 -5 197 0
-507 -128 508 0
-909 910 0
-545 133 546 0
-669 -89 671 0
-687 58 688 0
-878 153 880 0
-658 -146 0
-388 389 0
-593 594 0
-29 407 0
-792 793 0
-505 -40 506 0
-381 104 0
-572 573 0
-684 100 686 0
-271 272 0
49 591 0
-101 -71 0
-260 83 262 0
-829 147 830 0
50 592 0
-701 -99 702 0
66 801 0
-720 137 721 0
-197 198 0
-460 462 0
-115 -29 0
127 258 0
-785 787 0
-672 -90 0
-381 382 0
-148 -147 -82 -81 -80 -79 0
-260 263 0
-609 109 0
78 896 0
-273 -85 0
-60 59 0
-124 123 0
-55 668 0
-444 447 0
-655 -145 0
-190 6 191 0
-737 60 739 0
-293 -21 295 0
127 0
-883 -153 0
-622 -112 0
-327 330 0
-847 852 0
-822 145 824 0
-632 633 0
-851 854 0
-867 92 0
-405 123 0
-856 861 0
-836 839 0
-816 817 0
-374 375 0
-856 -161 858 0
-241 15 243 0
-899 904 0
-68 832 0
-38 37 0
-236 -14 238 0
-160 605 0
-903 906 0
81 0
-883 884 0
25 358 0
-242 243 0
-363 133 0
-441 442 0
-300 301 0
-73 874 0
-625 626 0
-588 -130 0
-773 -64 774 0
-45 563 0
-450 -160 0
78 899 0
-84 83 0
-280 -121 0
-121 281 0
-128 -127 -16 -15 0
-137 -73 0
-438 158 440 0
-915 -138 0
-917 81 0
-98 529 0
-770 774 0
-707 58 709 0
-692 693 0
-371 -133 373 0
-131 -57 0
-187 191 0
-766 106 0
-326 -24 328 0
-97 -23 0
-34 33 0
-896 117 0
-98 97 0
-789 -65 791 0
-270 -84 272 0
-811 -68 0
-380 384 0
-121 415 0
-810 -67 0
-748 -151 750 0
-499 -40 501 0
-864 865 0
-627 54 0
-4 182 0
-166 83 0
-543 133 0
-335 25 337 0
-363 365 0
-919 147 0
-485 488 0
-144 143 0
-636 -54 0
-790 791 0
-476 -108 478 0
-348 349 0
-632 -52 634 0
-460 38 461 0
-294 -22 296 0
-233 -13 235 0
-12 11 0
-532 533 0
-751 754 0
-70 69 0
-426 142 0
-692 -56 694 0
-803 68 805 0
-857 858 0
-174 97 0
-657 -145 658 0
133 550 0
-419 32 421 0
-43 553 0
-704 -100 705 0
-490 128 491 0
-861 -162 862 0
-599 600 0
-6 211 0
103 383 0
-58 57 0
-538 44 540 0
-629 54 630 0
-667 92 0
-20 19 0
-240 14 242 0
-547 133 548 0
-634 -53 636 0
-579 -88 0
-321 94 323 0
-545 548 0
15 0
-678 57 680 0
-314 -157 0
-596 161 598 0
-3 193 0
-544 46 545 0
-305 157 0
-582 -89 583 0
-105 -47 0
64 777 0
-730 -136 0
-850 851 0
-729 732 0
-552 136 0
-278 -119 0
-287 290 0
-8 7 0
-26 367 0
-349 351 0
-72 71 0
-226 13 0
-368 -27 370 0
-732 735 0
-574 89 0
-362 28 363 0
-917 918 0
-449 -159 450 0
-776 777 0
-481 39 483 0
-410 -32 0
-454 455 0
-48 585 0
-32 413 0
-659 660 0
149 0
-350 -26 351 0
-171 4 173 0
-364 133 365 0
-234 -13 236 0
-118 117 0
-624 53 626 0
107 464 0
-155 315 0
69 846 0
-619 -110 621 0
-498 506 0
-322 323 0
-89 674 0
-677 56 679 0
-842 845 0
-784 786 0
-232 -12 234 0
-351 -113 0
-445 -157 0
-688 99 689 0
-727 -135 0
-333 -96 0
-429 -33 0
-263 265 0
-612 111 0
-846 847 0
41 42 43 44 123 124 125 126 0
-769 -63 771 0
-44 43 0
-369 -28 371 0
-43 533 0
-831 832 0
-447 449 0
55 659 0
-630 125 631 0
-119 -15 0
-248 249 0
-588 589 0
-256 16 0
23 334 0
-877 74 879 0
-12 233 0
-456 36 458 0
-330 332 0
139 0
-898 899 0
-777 780 0
-174 175 0
89 665 0
-17 275 0
-644 144 646 0
-309 -22 311 0
-314 317 0
-800 66 802 0
-519 522 0
-499 500 0
-496 505 0
-383 104 384 0
-581 583 0
-824 825 0
-497 -39 499 0
-854 164 0
-103 -17 0
-644 648 0
-99 -47 0
-167 84 0
47 48 49 50 129 130 131 132 0
-807 132 0
-224 12 226 0
-495 -38 497 0
93 0
155 220 0
-35 468 0
-571 88 573 0
-750 -152 0
-795 -116 797 0
-891 892 0
-750 751 0
-876 -112 0
-120 280 0
-857 -161 859 0
-287 139 0
-322 94 324 0
69 826 0
-826 70 827 0
-191 107 192 0
-92 91 0
-602 -160 0
-894 77 0
-170 171 0
-312 316 0
-462 107 463 0
-375 376 0
-57 722 0
-206 8 207 0
-601 -159 0
-245 113 0
-115 -37 0
-495 496 0
109 611 0
40 511 0
-480 481 0
-820 821 0
-359 362 0
-204 7 0
-699 702 0
-679 680 0
-18 17 0
-337 26 339 0
-892 -102 0
-487 127 488 0
-97 -11 0
83 0
-222 223 0
-74 875 0
-421 422 0
-317 -158 0
-180 -4 181 0
-746 747 0
127 492 0
-504 509 0
-304 305 0
-882 -153 884 0
-580 -88 581 0
-504 -129 0
-4 194 0
-809 812 0
-348 -25 0
-721 138 0
-387 392 0
-409 410 0
51 623 0
-115 -47 0
-173 97 175 0
-686 101 0
-152 151 0
-752 -152 753 0
-842 -147 0
-485 127 0
-798 799 0
-414 416 0
-135 734 0
-161 861 0
-476 477 0
-540 541 0
54 642 0
-78 77 0
65 800 0
-218 219 0
-282 283 0
-307 157 308 0
-301 306 0
-346 -24 348 0
-821 828 0
77 895 0
-607 608 0
-920 148 0
-274 -86 0
-479 -110 0
-693 -57 695 0
-353 -114 0
-887 101 0
-115 -57 0
-911 912 0
-437 157 439 0
-496 -39 498 0
-354 -114 355 0
-109 -41 0
-264 85 0
-308 158 0
-328 329 0
-881 -74 883 0
27 0
-439 158 441 0
-794 795 0
-105 -35 0
-673 676 0
-251 -16 253 0
-223 94 0
-536 537 0
-395 396 0
-593 159 595 0
-60 731 0
-556 564 0
-679 57 681 0
-494 130 0
-278 279 0
-384 105 385 0
-560 566 0
-682 689 0
-143 -49 0
83 263 0
-819 70 821 0
21 288 0
-121 -25 0
35 451 0
-126 125 0
-262 264 0
-665 90 666 0
36 452 0
-710 60 712 0
-323 95 325 0
-866 91 0
-529 530 0
-408 411 0
2 166 0
-266 86 0
65 780 0
-309 310 0
-514 515 0
-11 232 0
-713 714 0
-329 331 0
-52 51 0
-501 -127 503 0
-463 108 0
-458 37 0
-847 161 849 0
-107 -29 0
-256 257 0
-753 -153 754 0
-604 -161 0
-95 -55 0
-55 692 0
-185 5 187 0
-858 862 0
-913 -80 914 0
-738 151 740 0
-196 200 0
-259 260 0
-522 524 0
7 0
-396 31 398 0
-420 33 422 0
-885 886 0
-508 -129 509 0
-443 444 0
-814 -131 815 0
-94 332 0
-521 -150 0
-302 303 0
-585 -49 0
-910 914 0
-627 628 0
-243 245 0
-97 528 0
-584 -48 0
67 816 0
-448 450 0
-32 428 0
-510 511 0
44 539 0
-48 47 0
-160 0
-845 -148 0
-112 111 0
-694 695 0
58 708 0
-422 34 424 0
-553 554 0
-465 109 0
-252 253 0
-530 -100 0
53 629 0
-893 76 0
-194 199 0
-295 296 0
-275 -18 0
-23 346 0
-170 3 172 0
-395 30 397 0
-542 46 0
-100 99 0
-57 698 0
-911 -80 0
-599 -50 601 0
-242 15 0
-378 383 0
-193 -4 195 0
-178 179 0
-158 157 0
-581 -89 0
-503 504 0
-382 385 0
87 455 0
26 359 0
-241 244 0
-785 117 0
-843 -146 844 0
14 241 0
-124 536 0
-26 25 0
-468 -36 470 0
-816 68 818 0
66 782 0
-910 -80 912 0
-33 431 0
-146 145 0
-394 -106 0
-561 -134 0
-560 -134 562 0
-818 69 820 0
-429 430 0
-397 31 399 0
-656 -144 657 0
-555 556 0
-768 -63 770 0
-812 814 0
-898 78 900 0
-908 -79 910 0
-696 -58 0
-229 231 0
-710 718 0
-534 535 0
-87 580 0
-355 357 0
-301 155 303 0
-540 45 542 0
-149 -33 0
-375 149 0
-296 299 0
-276 277 0
-453 86 0
-902 80 0
-756 -95 0
-601 602 0
-500 -127 502 0
-526 -42 0
-516 151 0
37 480 0
57 687 0
-332 -95 333 0
-289 139 290 0
-466 109 467 0
-484 485 0
52 608 0
85 0
-626 630 0
-99 704 0
-22 21 0
-86 85 0
-668 669 0
68 817 0
-547 550 0
-527 528 0
-874 -74 0
-403 122 405 0
-226 227 0
-25 366 0
-486 40 487 0
-23 326 0
-431 -34 432 0
-513 150 515 0
-731 734 0
-553 -44 555 0
-796 -116 798 0
71 864 0
-831 -68 833 0
-708 717 0
-269 270 0
46 547 0
-529 -99 0
-351 353 0
-157 447 0
-127 -19 0
-30 408 0
-433 -141 434 0
-791 -66 793 0
-415 417 0
-131 -53 0
-47 584 0
-132 131 0
-528 -98 0
-919 920 0
-905 137 906 0
-778 779 0
-336 337 0
-300 22 302 0
-728 -60 729 0
-248 -14 250 0
75 0
-271 -84 273 0
-661 662 0
-520 521 0
-759 764 0
-824 146 0
-539 544 0
-536 -125 0
-576 -48 578 0
-602 604 0
-461 463 0
48 569 0
-403 404 0
-65 808 0
-535 -124 0
-42 532 0
-472 -38 474 0
-587 588 0
-509 -130 0
-53 638 0
-888 102 0
-747 752 0
-475 -108 477 0
-414 -122 0
-295 -22 0
-510 40 512 0
-771 772 0
-470 471 0
-567 -136 0
21 300 0
-469 -37 471 0
-250 251 0
-802 67 804 0
-654 655 0
9 218 0
83 167 0
-52 616 0
-71 868 0
-580 582 0
61 758 0
-779 781 0
39 510 0
-600 603 0
76 886 0
62 759 0
-501 502 0
17 18 19 20 119 120 121 122 0
-107 -17 0
-541 545 0
-521 523 0
-772 -105 0
-670 -89 672 0
-113 354 0
-583 -90 0
-284 21 286 0
-471 -38 473 0
-407 -30 409 0
-725 729 0
163 0
-568 569 0
-767 768 0
-646 649 0
-106 105 0
-872 -72 0
-464 108 465 0
-772 775 0
-733 -137 0
-651 656 0
-318 24 320 0
-451 452 0
-290 140 0
-189 192 0
-378 103 380 0
140 0
-918 82 0
-480 38 482 0
-181 -97 0
-298 -139 299 0
-32 31 0
-512 149 514 0
-839 842 0
-698 701 0
-377 378 0
-411 -32 412 0
-691 102 0
-252 -16 254 0
-236 237 0
117 0
-392 -104 393 0
-561 562 0
53 641 0
-897 118 0
-701 704 0
-249 -15 251 0
-678 687 0
-587 -129 0
9 0
-613 111 614 0
-355 -115 0
-343 115 345 0
-114 356 0
-423 424 0
-244 246 0
-165 166 0
-903 137 0
-370 371 0
35 456 0
-303 156 305 0
-33 443 0
-863 -164 0
-488 128 0
-154 153 0
-93 -17 0
-645 144 0
-879 880 0
-232 233 0
-354 356 0
-143 656 0
-778 65 0
-24 347 0
14 230 0
-724 -59 726 0
-621 622 0
-44 554 0
-801 67 803 0
29 395 0
-741 742 0
-80 79 0
-430 -34 0
40 489 0
-726 727 0
-77 907 0
-284 285 0
-24 0
-671 -90 673 0
115 784 0
-488 491 0
-468 469 0
-808 809 0
-347 350 0
-303 307 0
-546 549 0
-6 5 0
-186 5 188 0
-872 873 0
-267 -18 269 0
-841 -146 842 0
-416 -123 0
-210 211 0
-813 815 0
-860 -163 0
-88 582 0
1 165 0
-793 -115 795 0
-222 93 0
-535 536 0
-875 876 0
-62 756 0
-421 33 423 0
-606 -162 0
-633 638 0
-227 14 0
-838 -145 839 0
-572 88 574 0
-575 90 0
-776 64 778 0
-239 -104 0
-918 919 0
-277 278 0
-788 -64 790 0
-336 25 338 0
-238 -103 0
-397 398 0
-904 80 905 0
-123 -37 0
-69 837 0
-111 -63 0
-140 139 0
-34 0
-517 152 0
-722 723 0
-610 110 0
-523 -151 0
-578 -87 0
-41 526 0
-851 163 0
-558 565 0
-506 -127 507 0
-63 773 0
-344 345 0
-614 112 0
87 0
61 62 95 96 0
-548 551 0
-528 529 0
-648 145 649 0
-684 690 0
-432 -141 0
-533 -44 0
-846 70 848 0
-705 -101 706 0
-66 65 0
-736 -138 0
-24 327 0
-338 26 340 0
-202 6 204 0
-565 -134 566 0
-531 532 0
-390 391 0
-595 596 0
-409 -31 0
-53 650 0
149 376 0
-715 716 0
-54 53 0
-183 -98 0
-273 274 0
56 678 0
13 228 0
-277 -20 0
-740 744 0
-105 -57 0
30 396 0
-347 -25 349 0
-276 -19 0
-825 147 0
-641 642 0
-30 387 0
-616 -109 618 0
-462 464 0
-689 100 690 0
39 486 0
85 453 0
-184 185 0
84 265 0
28 364 0
86 454 0
-868 -72 870 0
16 246 0
-357 -116 0
-712 135 714 0
-762 64 0
-728 731 0
-879 153 0
-697 -99 0
-59 746 0
-813 -131 0
24 335 0
-263 84 264 0
-482 39 484 0
-912 915 0
-197 -6 0
-47 576 0
-620 -111 622 0
-576 577 0
-172 4 174 0
-435 436 0
-114 113 0
-634 635 0
-615 -52 617 0
-247 114 0
-760 761 0
-664 91 0
-792 -66 794 0
-72 869 0
-592 159 594 0
-318 319 0
-838 841 0
-895 78 0
-804 68 806 0
-467 110 0
-780 782 0
-849 162 851 0
-316 -157 317 0
-103 392 0
-255 -114 0
-659 56 661 0
8 0
-827 145 828 0
-40 39 0
-757 -96 0
5 190 0
-440 159 442 0
-740 152 742 0
-205 8 0
-160 159 0
-123 535 0
-58 701 0
-37 495 0
-598 162 0
-783 116 0
-133 -31 0
51 607 0
-218 10 0
-412 -121 0
-787 118 0
-109 -47 0
-666 91 667 0
-894 895 0
-389 393 0
-311 312 0
-873 874 0
-288 22 289 0
-647 144 648 0
-470 -37 472 0
142 0
-756 757 0
-764 64 765 0
-615 616 0
-452 85 0
-159 603 0
-129 -43 0
-491 129 0
-387 -103 389 0
-2 177 0
-36 35 0
-702 705 0
-240 241 0
-362 364 0
-823 829 0
-771 -64 0
-537 -126 0
-866 867 0
-525 -152 0
11 0
-245 247 0
-746 -60 748 0
-628 631 0
-88 87 0
-487 490 0
-166 167 0
-832 837 0
-370 -28 372 0
-356 -115 357 0
-34 444 0
-432 434 0
-379 103 381 0
-213 -8 215 0
-719 136 720 0
-14 13 0
-339 113 341 0
-61 755 0
-385 106 0
-125 -47 0
-134 133 0
-651 -143 653 0
-779 66 0
-859 860 0
-675 -91 676 0
-427 -32 429 0
-211 -7 213 0
-254 -113 0
-22 310 0
-338 339 0
-62 768 0
-344 115 0
-221 222 0
-360 27 0
-78 908 0
-127 -31 0
143 647 0
-825 830 0
-478 -109 0
-463 465 0
-405 406 0
-391 -105 0
-68 814 0
63 776 0
-390 -104 0
-589 590 0
-205 207 0
-441 159 0
-817 69 819 0
7 206 0
-410 412 0
-569 87 571 0
-637 -125 0
-377 30 379 0
-472 473 0
-685 100 0
31 419 0
-557 -46 559 0
-515 151 517 0
-428 -33 430 0
-51 615 0
-10 9 0
-660 89 662 0
72 865 0
-708 59 710 0
-74 73 0
-214 215 0
-129 588 0
-860 863 0
-541 46 543 0
-253 -113 255 0
-257 258 0
-216 -119 0
-312 -156 314 0
-145 -59 0
-781 783 0
-62 61 0
-481 486 0
-120 119 0
13 240 0
-784 116 785 0
-886 101 888 0
-907 908 0
-523 525 0
-723 -59 725 0
-591 50 593 0
77 898 0
-324 325 0
-203 206 0
-281 -122 0
59 737 0
-299 -140 0
-366 -26 368 0
-285 289 0
-192 108 0
-514 150 516 0
-108 107 0
-257 127 0
-833 834 0
-5 199 0
-70 856 0
-319 93 321 0
22 301 0
-653 657 0
-58 723 0
-786 117 787 0
-31 411 0
73 877 0
-794 -115 796 0
-617 -109 619 0
74 878 0
10 219 0
-563 -46 564 0
-900 901 0
-415 -122 416 0
-663 90 0
-404 123 406 0
-458 459 0
-564 -133 565 0
-702 -100 703 0
-201 -108 0
-682 99 684 0
-238 239 0
-237 -103 239 0
-19 277 0
-334 24 336 0
-457 460 0
-718 135 719 0
-365 134 0
-914 -137 915 0
-179 181 0
-150 -149 -28 -27 0
-520 -149 0
-699 -99 700 0
-228 14 229 0
-531 -42 0
-243 16 0
-296 -139 0
164 0
-548 134 549 0
-261 83 0
-709 710 0
5 202 0
-60 747 0
-418 -124 0
-188 189 0
-221 12 0
6 203 0
-694 -57 696 0
-893 894 0
-608 109 610 0
-75 889 0
2 169 0
-48 577 0
-808 -66 810 0
141 0
-430 432 0
-372 373 0
-885 76 887 0
-473 -107 475 0
-489 127 490 0
-492 128 493 0
-380 104 382 0
-755 756 0
-94 93 0
-1 176 0
59 717 0
-881 882 0
-755 -62 0
-199 -6 200 0
-439 440 0
-734 -136 735 0
-177 180 0
33 435 0
-71 872 0
-631 126 0
-641 54 643 0
-424 141 426 0
-623 624 0
-25 350 0
-482 483 0
-822 823 0
70 847 0
10 0
-444 -157 446 0
-122 417 0
-209 120 0
-38 496 0
-283 21 285 0
-434 -142 0
-107 -13 0
-642 143 644 0
-729 -135 730 0
-224 225 0
-840 -145 841 0
-279 -120 0
-820 70 822 0
-428 431 0
-640 -126 0
-423 34 425 0
-834 -70 836 0
56 660 0
-21 297 0
-17 267 0
-874 875 0
-836 -145 0
30 378 0
-291 292 0
-714 720 0
-555 -45 557 0
82 919 0
18 260 0
-310 315 0
11 221 0
-457 37 459 0
144 0
12 222 0
-230 103 231 0
-869 -91 871 0
-800 801 0
-416 418 0
-358 359 0
110 613 0
55 677 0
-774 -105 775 0
-850 162 0
-761 765 0
-207 119 0
-478 479 0
-107 -23 0
38 481 0
-683 684 0
-156 -155 -10 -9 0
-542 543 0
-61 767 0
-133 -39 0
75 893 0
-118 -117 -78 -77 -76 -75 0
-142 141 0
-749 -152 751 0
-425 426 0
-346 347 0
-502 508 0
-873 -73 0
-225 228 0
-815 -132 0
-34 433 0
-821 145 823 0
-909 -79 911 0
116 786 0
-141 -39 0
-609 610 0
-327 -93 329 0
-556 -46 558 0
79 904 0
151 743 0
-608 611 0
-68 67 0
-662 90 664 0
-302 155 304 0
-250 -15 252 0
-626 54 628 0
-477 -109 479 0
-633 -53 635 0
-459 38 0
-491 494 0
-695 -58 697 0
-870 -91 0
-527 -97 0
-643 143 645 0
-859 -162 0
-597 598 0
-456 457 0
-796 797 0
-50 587 0
-175 98 0
-823 146 825 0
-145 843 0
4 185 0
-738 743 0
-538 539 0
-268 -83 270 0
-862 -163 863 0
-543 546 0
-775 -106 0
-361 28 0
-742 745 0
-534 -123 0
-500 507 0
-324 95 0
-643 644 0
-848 849 0
-464 466 0
-727 730 0
-56 669 0
-50 600 0
-707 708 0
-844 -147 845 0
-229 103 0
-605 -161 606 0
-73 881 0
-639 -125 640 0
28 375 0
-206 208 0
-128 127 0
37 460 0
16 257 0
-282 20 284 0
-272 -85 274 0
-187 6 189 0
-292 -21 294 0
-594 160 596 0
52 624 0
-452 453 0
-425 141 0
-524 -151 525 0
-516 517 0
-130 589 0
-153 -69 0
-636 637 0
-214 -8 216 0
-573 89 575 0
-840 843 0
-782 784 0
-817 826 0
-13 248 0
-235 -14 237 0
-42 41 0
-673 -91 0
-261 262 0
-760 63 762 0
-79 913 0
-189 107 0
-125 537 0
-887 888 0
-340 113 342 0
-586 587 0
-445 446 0
-304 156 0
-745 154 0
-650 651 0
-546 134 0
-884 -154 0
-669 674 0
-839 -146 0
-714 136 716 0
-770 -64 772 0
-258 128 0
-99 530 0
-832 -69 834 0
-313 314 0
-172 173 0
-512 513 0
-64 789 0
-391 394 0
-703 -101 0
-497 498 0
-376 150 0
-696 697 0
-709 59 711 0
-135 -53 0
-254 255 0
-681 682 0
-646 145 0
-812 -68 813 0
-20 278 0
-731 -135 732 0
-93 330 0
-180 182 0
45 0
-680 58 682 0
