p cnf 1105 2082
-102 101 0
-266 12 268 0
-748 749 0
-846 851 0
-296 -137 0
-868 869 0
-1073 1074 0
-1034 162 0
80 1016 0
-426 427 0
-1056 85 1058 0
-247 249 0
-403 410 0
-490 491 0
-830 831 0
-28 436 0
-7 230 0
-446 448 0
-28 27 0
-292 -15 294 0
-388 25 390 0
-148 147 0
-1086 -136 0
-135 -63 0
48 696 0
-935 936 0
-730 136 0
-86 0
-8 243 0
-915 -68 917 0
-976 -149 0
179 0
-778 145 779 0
-454 -174 456 0
-818 819 0
-854 -125 855 0
-677 678 0
-272 123 273 0
-359 24 361 0
-498 500 0
-1002 1003 0
-796 168 0
-881 884 0
-844 128 0
-509 118 0
-561 565 0
-225 142 0
-317 163 319 0
-602 155 0
-802 804 0
-496 -93 0
-162 161 0
-370 132 0
-744 745 0
-163 -27 0
-346 117 0
-159 -57 0
-544 132 545 0
28 443 0
-216 -129 217 0
-64 854 0
-486 487 0
-60 824 0
-24 23 0
-12 263 0
-227 -7 229 0
-1060 115 1062 0
-824 -61 0
-1042 -161 1043 0
-150 149 0
-670 671 0
-259 103 261 0
-228 229 0
-823 -60 0
-268 13 0
-75 1002 0
-506 36 508 0
-742 -136 0
-350 -21 0
-684 97 685 0
-764 -107 766 0
-125 857 0
-553 559 0
-940 137 941 0
-183 92 0
-353 355 0
-76 75 0
-596 597 0
-557 561 0
-280 281 0
-654 -46 0
-479 480 0
43 44 45 46 163 164 165 166 0
-653 -45 0
-663 664 0
-541 132 0
-2 1 0
-14 292 0
-122 121 0
-774 58 776 0
-988 989 0
-580 146 0
79 1014 0
-847 848 0
-588 -144 590 0
-611 158 0
-1091 90 1093 0
-326 327 0
-20 333 0
-808 812 0
-283 288 0
35 534 0
-815 -97 817 0
-1077 135 0
-385 -132 0
-188 4 0
-832 63 834 0
-637 105 639 0
-1055 1056 0
36 535 0
-1004 -77 1006 0
-1098 1100 0
-975 -74 976 0
-1061 115 0
-464 105 0
-31 481 0
-292 297 0
-373 -23 375 0
-1082 -88 0
-987 101 989 0
33 502 0
-214 216 0
-858 -127 859 0
-8 0
-552 -37 554 0
-136 135 0
-4 211 0
-391 141 393 0
-152 0
-918 922 0
-459 103 461 0
-673 -177 0
-572 40 573 0
-855 -126 856 0
-902 903 0
-770 -110 0
-397 401 0
-660 665 0
-460 461 0
-198 201 0
-108 769 0
1 181 0
-31 0
-631 170 0
-664 667 0
-827 -114 0
-644 645 0
-996 77 0
-202 203 0
-149 -51 0
41 604 0
-605 609 0
-969 970 0
-430 -26 432 0
-83 1063 0
-828 829 0
-44 645 0
-386 387 0
-649 651 0
-1018 -78 1020 0
-489 94 491 0
-938 139 0
-167 1105 0
-974 976 0
-123 -21 0
-285 16 287 0
-594 -145 595 0
-50 49 0
-570 571 0
-662 176 664 0
-788 -146 0
-1079 -86 1081 0
-543 131 544 0
-406 -26 408 0
-121 928 0
-716 718 0
-312 313 0
-759 108 761 0
-628 42 630 0
-1079 1080 0
-95 692 0
-195 196 0
-1022 -80 1024 0
-535 542 0
-96 95 0
-437 439 0
-1025 -140 0
-683 96 684 0
-68 916 0
-378 381 0
-167 -73 0
-311 -18 313 0
-435 -153 0
-732 -51 734 0
-800 -166 0
-633 -169 635 0
18 317 0
-818 -98 0
-1058 86 1060 0
-305 307 0
-790 165 792 0
-50 713 0
-163 656 0
-432 -27 0
-907 912 0
-46 45 0
-110 109 0
-773 57 775 0
-1013 1015 0
-961 73 963 0
-609 156 610 0
-954 957 0
-293 294 0
26 419 0
-7 242 0
-391 396 0
-719 50 721 0
42 629 0
-526 -36 527 0
-618 619 0
-507 117 509 0
-147 -25 0
-374 -24 376 0
-439 441 0
-156 155 0
23 386 0
-106 650 0
-380 383 0
-360 361 0
-880 883 0
-180 -179 -82 -81 0
-508 117 0
-750 -54 0
-1064 -85 1066 0
-88 1085 0
-622 626 0
-224 141 0
-533 -120 0
-623 -157 0
-320 -18 322 0
-82 81 0
-574 144 0
-968 151 970 0
-1010 1011 0
-1026 80 1028 0
-678 95 680 0
-185 190 0
-286 287 0
-29 474 0
-689 693 0
-1053 1054 0
-895 179 0
-11 262 0
-90 1101 0
-608 155 609 0
-859 -128 0
-217 -130 0
-795 796 0
-1054 -102 0
-41 620 0
-212 213 0
-12 275 0
-309 -17 311 0
-490 94 492 0
11 258 0
-372 377 0
-736 738 0
-1053 -101 0
-642 107 0
1 0
-676 -178 0
-657 -165 0
-765 -107 0
-1075 88 1077 0
-882 885 0
-862 863 0
-1039 -82 0
-420 421 0
-141 -15 0
99 986 0
-18 321 0
-710 -50 0
-59 814 0
100 987 0
-947 -72 949 0
-651 -108 0
-610 157 611 0
-929 930 0
20 325 0
-451 -173 453 0
60 806 0
-712 -119 0
-1049 1050 0
-1044 82 0
83 1055 0
56 772 0
-1066 -86 0
-365 370 0
-466 467 0
-1102 -152 0
-1057 85 1059 0
-1084 -135 0
-113 -47 0
-791 792 0
-130 129 0
-739 -134 740 0
-76 1003 0
79 1026 0
-970 152 0
-208 209 0
-471 473 0
-995 998 0
-90 1104 0
-334 335 0
-854 857 0
-274 -12 276 0
-191 113 192 0
-193 194 0
-462 104 464 0
-477 -123 0
-614 -41 616 0
-737 -133 738 0
-137 -55 0
-455 -175 457 0
112 0
-518 519 0
-700 119 702 0
-980 982 0
-871 159 872 0
-56 55 0
-1009 -128 0
178 896 0
-600 42 602 0
-360 24 362 0
88 1088 0
-1049 101 0
-888 -161 889 0
-1008 -127 0
-260 261 0
-600 601 0
-605 155 606 0
-944 -70 946 0
47 677 0
-585 586 0
-749 -160 0
-65 881 0
-931 71 933 0
-444 445 0
-784 785 0
-484 -149 0
-437 -154 0
-171 985 0
-910 911 0
-121 -61 0
67 68 69 70 121 122 0
-604 608 0
-186 187 0
-710 712 0
-728 135 730 0
-652 653 0
-962 74 964 0
-1078 136 0
-237 10 239 0
-149 -39 0
-157 -43 0
-412 -142 413 0
-427 155 429 0
-856 859 0
-836 837 0
-978 -150 0
-873 161 874 0
-1062 116 0
-465 106 0
-671 675 0
-1035 1036 0
-1020 1021 0
-373 374 0
-335 337 0
19 340 0
-116 115 0
-134 741 0
-577 580 0
36 514 0
-320 321 0
-906 68 908 0
-781 786 0
-375 -24 0
-1087 1088 0
-997 78 0
-504 505 0
-72 953 0
-343 22 345 0
-785 788 0
-765 766 0
-104 103 0
-26 431 0
-523 528 0
-280 -123 0
-182 183 0
-445 447 0
-67 924 0
-308 -16 310 0
-919 -110 0
-195 -3 197 0
27 442 0
-79 1035 0
-197 -4 0
-769 -109 770 0
-729 135 0
-736 -133 0
-939 72 940 0
-832 833 0
-874 162 0
-606 156 607 0
-93 498 0
-590 595 0
-979 -150 980 0
-32 477 0
-30 29 0
-624 -155 625 0
-924 -68 0
-896 179 897 0
-932 72 934 0
-808 98 810 0
-511 515 0
-234 235 0
-377 -24 378 0
-638 639 0
18 306 0
-418 419 0
-563 -132 564 0
-472 -105 473 0
-238 10 240 0
-316 317 0
-743 744 0
-862 65 864 0
-909 110 911 0
-460 103 462 0
-73 983 0
-379 382 0
-470 -104 471 0
-1072 87 1074 0
-501 -96 0
-243 -9 245 0
-825 826 0
-164 163 0
-945 -71 947 0
-92 -91 -2 -1 0
-1067 1069 0
-335 -92 0
-1019 -79 1021 0
-488 489 0
-994 995 0
-62 826 0
-552 553 0
-751 752 0
-864 66 866 0
-1014 1016 0
-90 89 0
-672 673 0
-942 139 943 0
-877 878 0
-159 749 0
-706 122 0
-352 354 0
-955 958 0
-701 119 703 0
-1061 1062 0
-11 274 0
-424 153 426 0
-450 -28 452 0
-422 28 424 0
5 218 0
73 74 171 172 0
-16 15 0
-598 599 0
-787 -145 788 0
-108 0
6 219 0
-842 126 843 0
-120 717 0
-41 632 0
-540 131 0
-948 -72 0
2 185 0
71 959 0
-559 563 0
-441 -156 0
-679 95 681 0
-571 143 0
-481 482 0
-323 -164 0
-623 627 0
-340 341 0
-175 674 0
-1103 -90 0
-829 -116 0
-845 -62 847 0
26 398 0
-922 -111 923 0
-52 744 0
-322 -163 0
-828 -115 0
-203 5 205 0
-4 3 0
-519 -35 521 0
-870 66 871 0
-990 991 0
-505 511 0
-791 165 793 0
-822 -100 0
-57 786 0
-392 393 0
-344 22 346 0
40 575 0
-187 4 189 0
-943 140 0
-1057 1058 0
-214 -6 215 0
-815 820 0
-555 -131 557 0
37 542 0
-411 415 0
-474 475 0
-737 739 0
-980 -151 0
17 304 0
-205 6 207 0
-589 -144 0
-263 -103 265 0
-615 621 0
-799 800 0
-1037 -81 1039 0
-138 137 0
-294 298 0
-392 141 0
-1051 -84 1053 0
-329 93 331 0
-558 -38 559 0
-619 623 0
-983 984 0
-342 343 0
-34 495 0
-137 -43 0
-84 1052 0
-986 100 988 0
-904 -179 0
-662 666 0
-725 726 0
-503 510 0
-64 63 0
-230 -8 231 0
-204 205 0
-819 -99 0
-667 178 0
-903 -179 905 0
-415 -142 416 0
-545 549 0
-627 -158 0
-268 269 0
-671 -176 673 0
-1047 84 1049 0
-1071 86 1073 0
-388 389 0
-433 -28 0
-267 270 0
-70 927 0
-43 652 0
-125 -55 0
-1093 1094 0
-840 64 841 0
97 811 0
-413 417 0
-738 -134 0
-855 858 0
-932 940 0
61 830 0
-333 -91 335 0
-314 315 0
-480 -126 0
62 831 0
-399 142 400 0
41 628 0
-19 348 0
-863 66 865 0
-387 25 389 0
-197 198 0
-497 -94 0
-1050 102 0
-1073 87 1075 0
-823 824 0
-9 254 0
-416 -143 417 0
-522 523 0
-103 -19 0
-981 -151 982 0
-60 59 0
-649 -107 0
-355 -118 0
-124 123 0
-866 159 868 0
7 234 0
-49 711 0
91 0
-526 530 0
-165 801 0
-890 891 0
-405 411 0
-1100 -151 0
-557 -132 0
-711 713 0
-287 137 0
-265 -104 0
-556 -131 0
-245 -10 0
-773 774 0
-264 -103 0
-632 633 0
-895 897 0
39 572 0
-930 939 0
-851 854 0
-170 169 0
-964 149 966 0
-1015 1017 0
-137 -63 0
-15 308 0
30 459 0
-816 817 0
-934 941 0
-275 -13 277 0
-699 700 0
-5 214 0
-38 37 0
-595 -146 0
-196 -4 198 0
-658 -166 0
-1082 1084 0
-457 -176 0
-492 95 0
-597 604 0
-747 -158 0
-843 127 844 0
-1024 1025 0
-898 -66 900 0
-1104 -167 0
81 0
-242 243 0
-499 501 0
-1038 -82 1040 0
-87 1083 0
-204 5 206 0
-833 64 835 0
-300 301 0
-357 23 359 0
-327 92 329 0
-645 648 0
-603 156 0
-972 -73 974 0
-476 -32 0
-88 1096 0
-84 83 0
-347 118 0
-809 810 0
-171 0
-284 15 286 0
-256 -173 0
-724 133 726 0
-949 952 0
55 771 0
-295 -16 0
-438 -154 439 0
-143 -31 0
-61 825 0
-571 574 0
-187 191 0
-50 0
-539 131 541 0
-434 436 0
-691 694 0
-273 124 0
-897 180 0
-512 516 0
-158 748 0
-705 121 0
-269 14 0
-797 798 0
-1036 1041 0
175 665 0
-184 2 186 0
-479 -125 0
-413 -143 0
-34 33 0
-100 991 0
-1080 1083 0
-759 760 0
-478 -124 0
-98 97 0
-212 -5 0
-754 -172 0
-516 119 517 0
-864 865 0
-74 984 0
-445 174 0
-326 91 328 0
-422 423 0
40 597 0
-301 304 0
-1020 -79 1022 0
-398 141 399 0
-127 -69 0
-747 748 0
-560 -132 561 0
-527 -117 528 0
-1068 1070 0
-947 951 0
-144 143 0
-578 144 579 0
-147 483 0
-485 -150 0
-283 15 285 0
-394 26 395 0
-931 932 0
-810 813 0
-315 -148 0
-669 -175 671 0
-348 349 0
-227 230 0
-402 -24 404 0
-314 -147 0
-189 113 0
-252 173 0
-89 1103 0
-12 11 0
-1013 80 0
-70 69 0
-274 275 0
-124 479 0
-720 51 722 0
-617 -155 619 0
-885 -160 886 0
-215 217 0
-1076 135 1078 0
-58 57 0
-954 -138 955 0
-560 564 0
-171 754 0
-924 925 0
-106 0
-364 130 0
-860 64 862 0
17 316 0
-1031 161 0
-499 -95 0
-20 19 0
-53 745 0
-603 607 0
-129 383 0
-644 -44 646 0
-474 -30 0
-281 -124 0
-946 -71 948 0
-2 194 0
-626 -157 627 0
-831 63 833 0
-408 409 0
-287 290 0
-137 -31 0
-498 -94 499 0
-1048 101 1050 0
-84 1064 0
-834 64 836 0
-869 874 0
-8 7 0
-780 -56 782 0
-72 71 0
-998 78 999 0
-926 -70 0
-732 735 0
-270 14 271 0
-446 174 447 0
-975 977 0
34 503 0
-917 918 0
-925 -69 0
-412 416 0
-23 377 0
-219 7 221 0
-129 -13 0
-1037 1038 0
-983 -74 0
-198 -113 0
-125 -43 0
-241 154 0
-454 455 0
-333 336 0
-491 95 493 0
-672 -176 0
-393 142 0
-659 660 0
-113 -33 0
-678 683 0
-118 117 0
-984 985 0
82 1045 0
-777 58 778 0
-1088 89 1090 0
-305 147 0
-1104 1105 0
-25 430 0
14 272 0
-963 964 0
-322 323 0
-715 -120 716 0
-331 94 0
-286 16 0
-816 -97 818 0
-783 787 0
-522 -36 524 0
-506 507 0
-1023 -139 1025 0
-591 -40 592 0
-705 706 0
-867 873 0
-44 43 0
-512 118 513 0
-553 -38 555 0
-741 -135 742 0
-483 -148 0
-447 449 0
-294 -16 296 0
-1030 1031 0
-1095 -88 1097 0
-525 529 0
-690 -96 0
-467 470 0
-761 109 0
-882 -159 883 0
-383 -130 384 0
-66 899 0
-258 12 260 0
-403 -25 405 0
-572 575 0
-898 899 0
89 90 167 168 0
-393 397 0
-757 758 0
-837 126 839 0
-1097 1098 0
-408 -141 0
-239 153 241 0
-20 349 0
-640 641 0
-407 -141 409 0
-645 -105 647 0
-378 -129 379 0
-1087 88 1089 0
-178 177 0
-137 -51 0
-965 966 0
-789 58 791 0
-824 825 0
-659 46 661 0
-1099 -90 1100 0
-10 255 0
-1030 82 0
-601 155 603 0
1 184 0
-695 48 697 0
-944 945 0
-381 384 0
-1008 1009 0
-5 226 0
-635 -170 0
-566 567 0
-794 167 796 0
-665 176 666 0
-886 -161 0
-607 157 0
-1027 1032 0
70 930 0
-686 687 0
-43 644 0
-136 0
-15 297 0
-87 1095 0
-750 751 0
-1031 1034 0
-308 309 0
-810 99 0
-276 -13 278 0
-1075 1076 0
-428 429 0
-426 154 428 0
-492 493 0
-25 410 0
-753 754 0
-982 -152 0
-92 91 0
-573 143 574 0
-433 435 0
-375 376 0
-937 938 0
-113 827 0
24 387 0
-312 -18 314 0
-99 990 0
-9 246 0
-1083 1085 0
-910 110 0
-679 680 0
-18 17 0
13 270 0
-67 915 0
-51 743 0
-1004 1005 0
-353 -117 0
-883 886 0
-371 -22 373 0
-793 166 795 0
-222 223 0
-760 109 762 0
-646 -105 0
-985 -172 0
-431 -27 433 0
-1029 1033 0
66 891 0
-54 746 0
-467 -103 469 0
-746 747 0
-27 434 0
-1052 -101 1054 0
-923 -112 0
-625 -156 626 0
-817 -98 819 0
-731 732 0
-1071 1072 0
-950 953 0
-878 -66 880 0
-561 -133 0
-1016 139 1017 0
-614 615 0
-84 0
-230 232 0
-152 151 0
-692 -96 693 0
-57 797 0
-361 129 363 0
12 259 0
-201 -114 0
-149 979 0
-833 841 0
-356 357 0
-28 451 0
-656 -164 0
81 1032 0
179 1046 0
-69 944 0
-476 477 0
-739 741 0
-837 843 0
-655 -163 0
-817 821 0
-540 541 0
-33 494 0
-78 77 0
-246 -10 247 0
-324 20 326 0
-1046 180 0
-10 248 0
-218 219 0
-617 622 0
-170 753 0
-282 283 0
-503 35 505 0
-524 -117 0
-442 28 444 0
-587 -143 589 0
72 960 0
-402 403 0
-544 548 0
-993 -102 0
-1 193 0
-321 -163 323 0
-358 23 360 0
23 366 0
-727 728 0
84 1056 0
37 566 0
-94 0
-992 -101 0
-1065 -85 0
-714 -120 0
-1059 86 1061 0
-339 -94 0
-113 -11 0
-328 329 0
-725 133 727 0
-22 372 0
-857 -126 858 0
-277 -14 279 0
-673 676 0
-653 654 0
-389 26 391 0
-34 519 0
-551 558 0
-1027 81 1029 0
-536 537 0
-421 28 423 0
-211 -5 213 0
-593 -144 594 0
-304 18 305 0
-425 154 427 0
-255 -173 257 0
-852 -125 853 0
-786 -58 787 0
-950 -72 951 0
-278 279 0
-17 320 0
-365 131 0
48 678 0
-1045 1046 0
-748 -159 0
-104 0
-904 905 0
-596 40 598 0
-1105 -168 0
-812 99 813 0
-462 463 0
-781 -57 783 0
-531 -118 532 0
-889 -162 0
-984 -171 0
-126 125 0
-646 647 0
-615 -42 617 0
143 578 0
-966 150 968 0
-918 -110 920 0
-607 611 0
-159 887 0
-330 331 0
-850 853 0
-971 972 0
-290 138 0
-23 402 0
-257 -174 0
-80 1036 0
-271 273 0
-988 101 0
-576 144 577 0
-976 978 0
-52 51 0
-6 0
-172 171 0
20 341 0
-1089 89 1091 0
-256 257 0
-776 779 0
-916 921 0
76 995 0
-979 981 0
-581 582 0
-310 -17 312 0
-780 781 0
-35 526 0
-701 702 0
-196 200 0
-735 -52 736 0
-764 767 0
-48 708 0
-726 134 728 0
39 596 0
-302 303 0
-963 74 965 0
-513 119 0
-145 -43 0
-165 658 0
-814 -60 816 0
-1007 -127 1009 0
-809 98 0
-890 66 892 0
-638 105 640 0
-48 47 0
-336 -92 337 0
-734 -52 0
-112 111 0
-586 -143 588 0
-573 576 0
-688 -95 690 0
-252 253 0
-542 38 543 0
-394 398 0
-733 -51 0
-643 108 0
-58 798 0
-487 93 489 0
-194 199 0
-295 296 0
-444 173 0
-400 143 401 0
-550 -36 552 0
-761 762 0
-86 1080 0
-100 99 0
-300 16 302 0
-1092 151 1094 0
-158 157 0
44 637 0
-746 -157 0
-766 768 0
-55 780 0
-382 385 0
-362 363 0
-899 -177 901 0
-473 -106 0
-863 871 0
-622 -156 623 0
-303 305 0
-181 2 0
-26 25 0
13 282 0
-334 -91 0
-146 145 0
-1012 1013 0
-891 894 0
-811 98 812 0
-853 -126 0
-554 -38 556 0
-192 114 0
-31 476 0
-775 58 0
-384 -131 385 0
-298 -137 299 0
-235 9 237 0
-229 231 0
-123 478 0
-965 149 967 0
-534 535 0
-616 -42 618 0
-566 38 568 0
-105 648 0
-167 -81 0
-114 828 0
-496 497 0
-912 110 913 0
-199 -4 200 0
-592 -143 593 0
-296 299 0
-276 277 0
-738 740 0
-821 -99 822 0
-977 -149 978 0
-418 26 420 0
-851 -64 852 0
21 356 0
-884 887 0
81 1044 0
-639 106 641 0
-927 -121 0
-597 41 599 0
-484 485 0
49 719 0
-668 -46 670 0
-22 21 0
78 1011 0
-86 85 0
-668 669 0
-1094 152 0
-785 -145 0
-226 227 0
-448 175 449 0
-801 -166 802 0
-916 -109 918 0
-234 8 236 0
-1051 1052 0
63 860 0
-691 -97 0
-387 394 0
29 458 0
-150 981 0
-998 1000 0
-351 353 0
-44 653 0
-756 107 758 0
-132 131 0
-674 -176 675 0
-56 764 0
-977 979 0
-919 920 0
-894 178 895 0
-798 801 0
-1090 90 1092 0
-806 97 808 0
-367 129 368 0
-26 414 0
-477 478 0
-740 742 0
-876 881 0
-452 -173 454 0
-933 72 935 0
-185 3 187 0
-51 735 0
-1103 1104 0
75 0
-661 662 0
-348 -20 350 0
-547 132 548 0
-520 521 0
-875 -64 877 0
-620 -42 621 0
-29 466 0
-539 544 0
-520 -35 522 0
-986 987 0
-104 472 0
-845 846 0
-1064 1067 0
-372 -23 374 0
-907 109 909 0
-262 263 0
-207 129 209 0
-359 367 0
-880 -159 0
14 283 0
-587 588 0
-135 -69 0
-190 4 191 0
71 939 0
-481 -32 0
-949 -137 0
-579 145 580 0
-629 169 631 0
-771 772 0
-40 613 0
-349 352 0
-999 127 0
-911 914 0
-250 251 0
-46 655 0
-712 714 0
-495 -93 497 0
-654 655 0
-247 -153 0
-270 272 0
-686 -48 688 0
-936 942 0
-1005 -78 1007 0
-211 214 0
-838 839 0
-876 -65 878 0
-697 49 699 0
-621 -155 622 0
-221 8 223 0
-1022 1023 0
-1055 84 1057 0
-537 543 0
-721 722 0
-337 339 0
-161 -73 0
-52 737 0
-301 17 303 0
-1029 82 1031 0
-180 179 0
63 840 0
83 1047 0
173 446 0
-357 366 0
-541 545 0
-469 -104 0
-91 336 0
-826 -113 0
-693 -97 694 0
84 1048 0
8 235 0
-529 -119 0
-647 649 0
-102 0
-468 -103 0
-113 -55 0
-619 -156 0
-361 368 0
-1089 1090 0
-442 443 0
-200 -113 201 0
-517 120 0
-1021 -80 1023 0
-568 569 0
-337 -93 0
65 890 0
-856 -127 0
-909 913 0
-1041 -82 1042 0
-106 105 0
-713 -119 714 0
-24 403 0
-69 926 0
-244 -9 0
-752 753 0
-325 91 327 0
-714 716 0
-85 1067 0
-310 311 0
-189 192 0
-1077 1078 0
-262 -12 264 0
-1002 -76 1004 0
-318 163 0
-494 495 0
-1080 -87 1082 0
-834 835 0
-523 -117 525 0
-32 31 0
-133 739 0
-24 380 0
-435 437 0
53 54 169 170 171 172 0
-660 175 662 0
-1018 1019 0
-744 -53 0
-513 517 0
-755 56 757 0
-236 237 0
-3 210 0
-456 -175 0
-1028 81 1030 0
-717 -121 718 0
-419 27 421 0
-376 379 0
-612 -40 614 0
-42 633 0
25 394 0
-133 -43 0
-206 6 208 0
-453 -174 455 0
-711 -50 712 0
-447 175 0
-458 30 460 0
77 998 0
-872 160 873 0
-664 177 0
-891 177 893 0
-248 -153 249 0
-109 -59 0
-745 746 0
-289 137 290 0
-1006 -78 1008 0
-153 -17 0
-545 133 0
-885 888 0
-990 -100 992 0
-1096 -89 1098 0
-390 26 392 0
-521 -36 523 0
-443 446 0
-677 48 679 0
-1067 -86 1068 0
-628 629 0
-166 803 0
-1085 -135 1086 0
-137 -37 0
-166 165 0
-584 592 0
-634 -169 0
-1003 -77 1005 0
-363 130 365 0
-37 581 0
-955 -139 0
-694 -98 0
-151 -79 0
-148 484 0
-967 150 969 0
-952 955 0
-302 17 0
-894 896 0
-48 687 0
-551 -37 553 0
-996 997 0
-86 1069 0
-695 696 0
-341 21 343 0
-574 577 0
-554 555 0
47 695 0
-253 174 0
-125 -49 0
-154 153 0
-37 558 0
-879 880 0
-461 104 463 0
-374 378 0
-505 36 507 0
-226 -6 228 0
-753 -171 0
-1063 1064 0
65 870 0
-558 562 0
-803 -167 804 0
-641 107 643 0
-599 42 601 0
-149 -57 0
-752 -170 0
-537 38 539 0
-519 526 0
-80 79 0
-946 947 0
-930 71 932 0
-397 143 0
-805 806 0
-562 -131 563 0
-1097 -89 0
-145 -51 0
-518 -34 520 0
-428 155 0
-36 530 0
-883 -160 0
-925 926 0
-284 285 0
-582 591 0
-483 484 0
-131 -31 0
33 486 0
-727 134 729 0
-304 306 0
-952 -138 0
-463 105 465 0
-236 9 238 0
-468 469 0
34 487 0
-681 96 0
-586 593 0
-1093 151 0
-107 -47 0
-21 371 0
-6 5 0
-242 -8 244 0
-798 -165 800 0
-869 161 0
9 250 0
-793 794 0
-892 177 0
-758 108 760 0
-685 98 0
-825 -62 0
-992 993 0
-210 211 0
-550 551 0
-33 518 0
-306 147 307 0
-254 -10 256 0
-767 -108 768 0
-805 60 807 0
-409 -142 0
-875 876 0
-32 482 0
-157 747 0
-997 999 0
-689 -96 691 0
-73 975 0
-655 656 0
-169 -45 0
-249 -154 0
67 906 0
-860 861 0
-995 77 997 0
-719 720 0
-1059 1060 0
-598 41 600 0
-119 715 0
-584 -40 586 0
78 1000 0
-1044 1045 0
-687 -95 689 0
-602 603 0
-140 139 0
-951 -137 952 0
-582 -39 584 0
-927 928 0
-731 -50 733 0
-902 -178 904 0
-77 1018 0
-546 131 547 0
-414 -141 415 0
-621 625 0
-344 345 0
-670 -175 672 0
-906 907 0
-471 -105 0
-366 24 367 0
-464 465 0
-420 27 422 0
-606 610 0
-332 -20 334 0
-900 -177 902 0
-991 -101 993 0
-789 790 0
-66 65 0
-206 207 0
-469 471 0
-379 -130 0
-807 97 809 0
-973 974 0
-974 -74 0
-852 855 0
-1012 79 0
-390 391 0
-879 -66 0
-45 654 0
-973 -73 0
-762 110 0
-784 -58 0
-978 980 0
-54 53 0
-702 120 704 0
-74 977 0
-436 -153 437 0
-261 104 0
-751 -169 0
-250 10 252 0
91 183 0
-47 707 0
-782 783 0
-502 34 504 0
-567 39 569 0
-228 -7 0
43 636 0
95 683 0
-680 96 682 0
-184 185 0
-524 525 0
-640 106 642 0
-482 -147 0
-376 -129 0
-535 37 537 0
-849 850 0
-6 227 0
-929 70 931 0
-718 -122 0
-266 267 0
-440 -155 441 0
57 777 0
-113 -43 0
-528 532 0
-892 893 0
-792 166 794 0
-450 451 0
-713 715 0
-917 -109 919 0
45 659 0
-35 550 0
-569 40 571 0
-1096 1099 0
-94 500 0
46 660 0
-775 776 0
-114 113 0
-634 635 0
68 907 0
-1068 -115 0
-240 153 0
-960 73 962 0
-85 1079 0
-847 -63 849 0
-959 960 0
-318 319 0
-532 -119 533 0
-107 767 0
-193 -2 195 0
-502 503 0
-721 51 723 0
-40 39 0
-1035 -80 1037 0
-827 828 0
-1084 1086 0
-663 176 0
-911 111 0
-160 159 0
-1026 1027 0
-297 -16 298 0
-330 93 0
-135 -77 0
-244 245 0
-534 36 536 0
-1015 139 0
-928 -122 0
-768 770 0
-63 851 0
-364 365 0
-243 246 0
-908 109 910 0
4 203 0
-154 440 0
77 1010 0
-404 -25 406 0
-466 -30 468 0
-395 141 396 0
-30 475 0
-835 125 837 0
-186 3 188 0
-486 34 488 0
-568 39 570 0
-972 975 0
-901 -178 903 0
-3 199 0
-89 1099 0
-509 513 0
-772 777 0
-65 898 0
-510 36 511 0
-951 954 0
-893 895 0
85 1071 0
-233 -142 0
-835 842 0
-328 92 330 0
86 1072 0
-231 233 0
-125 480 0
-163 -41 0
-436 438 0
29 30 31 32 123 124 125 126 0
109 912 0
-1081 1082 0
-763 -56 765 0
-839 844 0
-941 138 942 0
-819 822 0
-220 7 222 0
-213 -6 0
-377 380 0
56 756 0
-36 35 0
-776 145 0
-70 945 0
-64 876 0
-240 241 0
-410 -26 411 0
-401 144 0
-1074 88 1076 0
-632 -42 634 0
-886 889 0
-866 867 0
-1017 140 0
-841 125 842 0
-97 820 0
-424 425 0
-245 247 0
-232 -141 233 0
-500 -95 501 0
-867 160 869 0
-382 -131 0
-88 87 0
-507 512 0
-38 582 0
-251 173 253 0
-222 8 224 0
-149 485 0
-8 232 0
-953 956 0
-202 4 204 0
-569 573 0
-303 18 0
-933 934 0
-351 -22 0
-350 351 0
-956 -138 957 0
-271 123 0
-369 131 370 0
-722 52 724 0
-71 971 0
-267 13 269 0
-14 13 0
-443 173 445 0
31 32 147 148 149 150 0
16 301 0
-386 24 388 0
-134 133 0
-488 93 490 0
-279 -123 281 0
-661 175 663 0
-766 -108 0
-800 802 0
-103 470 0
-109 921 0
-194 -3 196 0
-429 156 0
-820 -98 821 0
-926 927 0
-881 -66 882 0
22 357 0
38 567 0
-945 950 0
-264 265 0
-338 -93 339 0
-39 612 0
-171 -65 0
-846 -63 848 0
-682 97 0
19 324 0
-567 572 0
-850 -125 0
-511 117 512 0
-589 590 0
-362 129 364 0
-687 692 0
-893 178 0
-269 271 0
-409 413 0
-735 737 0
-10 9 0
64 861 0
-704 121 706 0
-74 73 0
-839 127 0
-1001 128 0
-555 560 0
-656 657 0
-989 102 0
-417 -144 0
-27 450 0
-137 956 0
-50 732 0
-861 65 863 0
-336 338 0
35 510 0
-1043 -162 0
-504 35 506 0
76 0
-938 943 0
-1039 1040 0
-38 562 0
-745 -54 0
-115 -67 0
-1045 179 0
-707 -48 709 0
87 1087 0
-723 724 0
-62 61 0
-169 752 0
3 190 0
-439 -155 0
-78 1019 0
-120 119 0
-804 -168 0
-538 38 540 0
-601 606 0
-543 547 0
-806 811 0
-293 -15 295 0
-953 -137 954 0
-577 145 0
-324 325 0
-1011 79 1013 0
-68 925 0
-396 142 397 0
-1091 1092 0
-913 111 914 0
-570 40 0
-285 289 0
-969 151 0
-407 412 0
-291 -14 293 0
-508 509 0
-470 472 0
-108 107 0
-853 856 0
-703 120 705 0
-423 153 425 0
-223 141 225 0
-1033 161 1034 0
-1040 -161 0
-135 -55 0
-797 -58 799 0
-957 -139 958 0
-1099 1101 0
57 789 0
-830 62 832 0
-920 923 0
-900 901 0
-395 399 0
-458 459 0
58 790 0
-564 -133 565 0
-368 130 369 0
-1040 1043 0
-652 -44 0
-46 669 0
-117 -29 0
-238 239 0
-849 -64 0
-585 -40 587 0
-599 605 0
-6 216 0
-345 117 347 0
-642 643 0
-62 846 0
-548 133 549 0
-861 870 0
174 448 0
-921 -110 922 0
-967 968 0
-826 827 0
-709 -49 0
-583 -39 585 0
-449 176 0
-865 872 0
-53 750 0
-767 769 0
-56 781 0
-709 710 0
-209 130 0
-771 56 773 0
-920 -111 0
-356 22 358 0
-630 631 0
-246 248 0
-47 686 0
-188 189 0
-708 711 0
-168 167 0
-688 689 0
-813 100 0
-604 42 605 0
-529 533 0
15 288 0
-814 815 0
25 418 0
-36 551 0
-88 0
-1081 -87 0
-636 44 638 0
80 1027 0
-697 698 0
-1063 -84 1065 0
-576 579 0
-556 557 0
-231 -141 0
-1038 1042 0
-755 756 0
-887 -160 888 0
-94 93 0
-278 -14 280 0
-877 -65 879 0
-696 49 698 0
-497 499 0
-380 -129 381 0
-795 167 0
-115 829 0
2 182 0
-1065 1066 0
-493 96 0
-494 -34 496 0
-482 483 0
-181 182 0
-948 949 0
-1069 -115 1070 0
-708 -49 710 0
-349 -21 351 0
-647 -106 0
-807 808 0
-475 -31 0
-434 -28 435 0
-521 527 0
-515 118 516 0
-224 225 0
-868 160 0
-1000 127 1001 0
-716 -121 0
-1011 1014 0
-782 -57 784 0
-411 -141 412 0
-121 -55 0
-690 691 0
-59 823 0
-698 50 700 0
-164 657 0
-536 37 538 0
-1083 -88 1084 0
-510 514 0
-389 395 0
-733 734 0
-1010 78 1012 0
-432 433 0
-588 594 0
-282 14 284 0
-291 292 0
-934 137 936 0
-381 -130 382 0
-431 434 0
-42 624 0
-81 1041 0
-616 617 0
-313 -147 315 0
-495 498 0
-137 -23 0
-475 476 0
-613 -41 615 0
-999 1001 0
-182 91 0
-878 882 0
-959 72 961 0
-848 -64 850 0
-1024 -139 0
-358 359 0
-478 479 0
-620 624 0
-799 -165 0
-316 18 318 0
-783 -58 785 0
-125 -35 0
-1036 -81 1038 0
-1066 1068 0
50 720 0
-682 685 0
-142 141 0
-514 117 515 0
59 805 0
-936 138 938 0
-220 221 0
-1101 -151 1102 0
-13 291 0
-30 467 0
-229 -8 0
-346 347 0
-404 405 0
42 608 0
-149 -43 0
-19 332 0
-666 177 667 0
-405 -26 407 0
-884 -159 885 0
-528 -118 529 0
-729 730 0
-650 -107 651 0
-68 67 0
-340 20 342 0
-836 125 838 0
-958 -140 0
10 251 0
-612 613 0
-342 21 344 0
-1070 -116 0
-734 736 0
-210 -4 212 0
-119 -43 0
-72 972 0
-10 0
-831 840 0
-213 215 0
-456 457 0
-260 103 0
-838 126 0
-154 0
-49 731 0
111 0
177 894 0
-590 -145 0
-538 539 0
-801 803 0
-218 6 220 0
-530 -117 531 0
-680 684 0
-935 137 937 0
-71 950 0
-307 148 0
-630 169 0
-92 338 0
-1014 80 1015 0
-363 369 0
-802 -167 0
-707 708 0
69 929 0
-905 -180 0
-66 884 0
-406 407 0
-167 -65 0
-60 815 0
59 60 61 62 113 114 115 116 0
-542 546 0
-581 -38 583 0
-971 -72 973 0
-1047 1048 0
-648 650 0
-527 531 0
-1032 82 1033 0
-54 751 0
-772 57 774 0
3 202 0
-937 138 0
-352 -22 353 0
-549 134 0
-757 107 759 0
-20 0
-128 127 0
-865 159 867 0
-740 -135 0
51 52 53 54 157 158 159 160 0
-915 916 0
-565 -134 0
-105 -33 0
-410 414 0
-575 143 576 0
-332 333 0
-452 453 0
38 546 0
-715 717 0
-215 -129 0
-288 16 289 0
-16 309 0
-657 658 0
-994 76 996 0
-55 763 0
-39 591 0
-699 50 701 0
-723 52 725 0
-636 637 0
-319 164 0
-613 620 0
75 994 0
-174 173 0
-21 352 0
-149 -63 0
-258 259 0
-961 962 0
-83 1051 0
-1098 -90 0
-45 668 0
55 755 0
-583 584 0
-648 -106 649 0
-113 -19 0
-703 704 0
-914 112 0
-61 845 0
-42 41 0
-618 -155 0
-908 909 0
-559 -131 560 0
-1028 1029 0
-153 438 0
-848 852 0
-299 -138 0
-208 129 0
-430 431 0
-669 674 0
-165 -53 0
-53 0
-354 -117 355 0
-1095 1096 0
-371 372 0
-675 -177 676 0
-774 778 0
-1100 1102 0
-743 -52 0
-176 175 0
-575 578 0
-115 -75 0
-254 255 0
15 300 0
-768 -109 0
-396 400 0
-63 875 0
-438 440 0
-113 -29 0
11 266 0
-681 682 0
-22 354 0
12 267 0
-779 146 0
-1006 1007 0
-525 -118 0
-763 764 0
