p cnf 1009 1920
-102 101 0
-793 104 0
-1 188 0
-943 78 945 0
-889 890 0
-181 3 183 0
57 768 0
-31 426 0
-947 948 0
-484 -37 486 0
58 769 0
-701 -124 702 0
-823 -63 0
-426 427 0
-305 308 0
-25 362 0
-183 4 0
-28 27 0
-214 6 216 0
-949 -167 0
-815 816 0
-431 433 0
-587 594 0
-698 -123 699 0
-148 147 0
-854 -159 0
-616 172 618 0
-351 -148 352 0
-57 759 0
-493 494 0
-329 336 0
39 503 0
-21 309 0
-697 700 0
-609 -156 610 0
-314 321 0
63 833 0
-348 -147 349 0
-357 359 0
-141 -17 0
-391 135 393 0
-812 64 814 0
-861 862 0
-560 561 0
-346 -147 347 0
-318 323 0
-358 162 359 0
-546 44 547 0
-656 52 657 0
-162 161 0
-744 745 0
-337 149 338 0
-604 -155 605 0
-181 184 0
12 0
49 646 0
-928 929 0
-24 23 0
-869 871 0
-811 812 0
-396 -29 0
-150 149 0
-933 935 0
-538 -113 0
-251 -89 253 0
-429 -170 0
-631 635 0
-69 896 0
-305 131 0
-412 413 0
-933 -76 0
15 257 0
-855 -159 856 0
57 748 0
-59 802 0
-76 75 0
-447 -34 449 0
-963 -81 965 0
-382 -92 383 0
-176 -175 -88 -87 0
-568 143 0
-541 43 543 0
-908 74 0
-336 148 337 0
-293 118 0
7 230 0
-804 805 0
-142 0
-663 664 0
-857 66 859 0
-2 1 0
-584 585 0
-738 56 740 0
-133 -37 0
-988 86 0
-122 121 0
4 197 0
-988 989 0
-847 848 0
-946 168 0
-403 31 405 0
-587 155 589 0
-346 349 0
-326 327 0
-34 435 0
-841 158 843 0
-641 -94 0
-995 88 996 0
37 495 0
-566 142 568 0
-187 112 0
-730 -56 731 0
-209 210 0
-835 836 0
-818 145 820 0
-53 722 0
-24 340 0
-123 -11 0
28 387 0
-119 -41 0
-159 -77 0
-790 102 792 0
-136 135 0
-692 -53 694 0
-981 983 0
-34 448 0
-456 459 0
25 354 0
-398 400 0
-271 -17 0
-614 171 616 0
-96 887 0
-795 -101 797 0
-902 903 0
-847 -65 0
51 676 0
-665 -52 0
-450 -164 0
-249 -16 251 0
-679 687 0
-402 30 404 0
-449 -163 0
-530 -151 0
-727 732 0
-268 114 0
-636 96 0
-248 92 0
-465 -99 467 0
-386 387 0
-61 821 0
-380 -91 0
42 541 0
-123 -21 0
-50 49 0
-570 571 0
-119 -51 0
161 232 0
-952 97 0
-252 -90 254 0
-939 -77 0
-357 162 0
-914 919 0
-844 160 0
-307 131 308 0
-715 719 0
-637 638 0
-361 164 0
-458 460 0
-595 157 596 0
-613 171 615 0
-324 24 326 0
-96 95 0
-962 963 0
-223 -7 225 0
-578 580 0
-821 822 0
-700 703 0
-880 98 0
-500 135 502 0
-739 748 0
-466 -100 468 0
-199 203 0
-596 158 0
-64 0
-693 -53 695 0
-295 23 297 0
-212 -123 213 0
-42 537 0
61 809 0
-289 22 0
-67 889 0
-498 40 500 0
-46 45 0
-554 -133 0
-829 831 0
25 334 0
-829 -144 830 0
-110 109 0
-371 91 373 0
-981 -84 0
-278 -113 0
-969 -110 0
-776 168 0
-551 552 0
-203 123 204 0
-389 30 391 0
-676 52 678 0
-131 436 0
-434 435 0
-669 -106 0
-42 550 0
-869 -174 870 0
-891 -70 0
-236 10 0
-155 609 0
-116 -115 -12 -11 -10 -9 0
-618 619 0
-890 -69 0
-696 699 0
-156 155 0
-143 -55 0
115 240 0
-262 111 264 0
-647 51 649 0
-802 803 0
-113 -27 0
-851 -157 852 0
-373 92 375 0
-1001 1002 0
3 184 0
-544 545 0
-527 -40 0
-763 766 0
-82 81 0
-629 93 631 0
-505 509 0
-974 84 976 0
-528 -149 0
-395 -29 397 0
-26 363 0
-191 -4 193 0
47 612 0
-258 17 260 0
-227 229 0
-726 -56 728 0
-184 4 185 0
-994 996 0
-129 -17 0
22 295 0
-195 -112 0
-332 148 0
79 951 0
145 0
-213 -124 0
-756 760 0
-634 94 635 0
-533 113 535 0
-678 679 0
-553 -44 0
-308 132 0
1 0
-432 -171 433 0
-1001 -87 1003 0
35 471 0
-17 281 0
-147 351 0
-362 -26 364 0
-882 885 0
-478 480 0
-637 -50 639 0
-420 421 0
-624 -172 625 0
55 714 0
-299 302 0
-39 527 0
-849 -66 850 0
-724 725 0
-603 606 0
-745 751 0
14 0
-788 789 0
-887 -97 888 0
-694 -54 696 0
-439 34 441 0
97 953 0
-267 268 0
-502 136 0
-870 872 0
71 901 0
-773 167 0
-345 348 0
-477 117 478 0
-859 173 861 0
-294 22 296 0
-870 -175 0
-413 415 0
-670 673 0
-130 129 0
-580 -143 581 0
-149 -29 0
-247 91 248 0
-754 -57 756 0
-275 277 0
4 186 0
-922 74 924 0
-56 55 0
-922 923 0
-211 -6 212 0
1 180 0
-32 0
-843 844 0
-459 461 0
-705 -126 0
-612 48 614 0
-810 63 812 0
99 459 0
-608 -157 0
-813 64 815 0
-605 608 0
-728 -137 0
-64 846 0
-681 123 683 0
-557 -134 0
-998 160 0
-583 47 585 0
-331 148 333 0
-286 100 0
-28 395 0
-919 -74 920 0
83 986 0
-787 101 789 0
-958 82 960 0
-652 653 0
84 987 0
-70 892 0
-511 512 0
56 739 0
-322 -131 323 0
71 904 0
-170 432 0
-452 454 0
-435 -131 0
-228 -141 229 0
-235 -106 0
-59 794 0
80 952 0
-394 395 0
59 786 0
40 507 0
-253 254 0
-103 -67 0
-956 957 0
-234 -105 0
-598 -47 600 0
-437 438 0
-663 -51 665 0
-116 115 0
-709 56 711 0
-105 -19 0
79 0
-204 124 0
115 0
-630 93 632 0
-503 40 504 0
75 76 77 78 153 154 0
-965 -82 0
-282 -169 0
-558 44 560 0
-582 46 584 0
-907 911 0
-104 103 0
-715 137 716 0
-84 984 0
-182 183 0
-532 42 534 0
-713 138 0
-253 -90 255 0
-949 950 0
-261 18 263 0
-29 398 0
-366 367 0
-743 151 745 0
-431 -171 0
-588 155 590 0
-923 75 925 0
-219 141 221 0
-276 -112 0
-691 692 0
-808 -122 0
-30 29 0
-896 897 0
-249 250 0
23 300 0
-81 966 0
89 245 0
-234 235 0
-716 720 0
-584 47 586 0
-514 -40 516 0
-360 163 361 0
-418 419 0
-720 139 721 0
-75 938 0
-516 521 0
-579 581 0
-442 164 444 0
-561 46 563 0
-820 146 0
-359 361 0
-976 127 0
-757 -58 0
-379 382 0
-679 54 681 0
-269 -16 271 0
-536 -42 538 0
-485 486 0
-643 -94 644 0
-164 163 0
-684 685 0
-868 870 0
19 284 0
42 533 0
3 196 0
-368 369 0
-625 627 0
-504 508 0
-830 832 0
85 988 0
-534 113 0
-860 174 862 0
86 989 0
-90 89 0
-193 -111 195 0
-935 937 0
-490 -118 492 0
-877 878 0
-230 231 0
-872 -176 0
-10 234 0
-629 634 0
-463 -36 465 0
-767 -154 0
-294 295 0
-800 -103 801 0
-543 44 545 0
-279 -113 280 0
-910 74 911 0
27 386 0
-762 -151 763 0
-232 162 0
-16 15 0
-886 -97 0
-611 -158 0
-573 -46 0
161 358 0
-405 32 407 0
-281 -18 0
-987 85 0
-363 -161 365 0
-572 -45 0
13 0
118 481 0
-806 807 0
-697 -54 698 0
117 293 0
-665 666 0
-4 3 0
-354 26 356 0
-647 656 0
-427 430 0
-967 -109 0
-352 -149 353 0
-48 606 0
-381 -92 0
-392 393 0
-995 997 0
41 540 0
-854 856 0
-290 291 0
-38 512 0
-913 -72 915 0
-920 -121 921 0
85 991 0
-408 155 0
-33 447 0
-552 556 0
-795 798 0
-16 270 0
-940 -78 0
147 0
-113 -35 0
-799 -103 0
-138 137 0
89 179 0
-274 276 0
-420 169 422 0
-590 156 0
-216 217 0
-479 481 0
-646 50 648 0
-498 504 0
-825 -64 826 0
-141 -13 0
-137 -43 0
-685 125 0
-273 -18 274 0
-780 -166 782 0
-716 138 717 0
-369 -164 0
-604 607 0
-441 163 443 0
-64 63 0
-77 947 0
59 60 61 62 119 120 121 122 0
-556 -133 557 0
-740 57 742 0
-644 -95 645 0
-467 468 0
-44 571 0
-388 389 0
-850 852 0
-729 733 0
-792 793 0
-671 674 0
-230 8 0
-550 555 0
-433 -172 0
-169 283 0
-572 573 0
-271 272 0
-871 -175 872 0
-976 977 0
-171 624 0
-966 -82 967 0
-655 660 0
-17 273 0
-455 456 0
-513 -39 515 0
-577 579 0
-339 -24 341 0
-141 -23 0
-915 -73 917 0
-39 519 0
-639 640 0
-1002 -88 1004 0
-460 462 0
26 355 0
-30 0
-823 824 0
-664 668 0
-955 81 957 0
-225 -8 0
-977 128 0
-731 -137 732 0
-574 -46 575 0
-60 59 0
-174 0
-124 123 0
29 402 0
-342 346 0
-706 707 0
-741 749 0
-828 830 0
-457 99 0
-345 -26 346 0
-16 250 0
-745 152 747 0
-929 140 0
-121 808 0
17 18 169 170 0
-925 76 927 0
-400 -135 401 0
-890 891 0
-747 153 0
-206 211 0
-683 124 685 0
-519 -40 520 0
-628 50 630 0
-589 595 0
-867 -173 0
-632 633 0
-79 962 0
-190 191 0
-141 -33 0
-60 795 0
-170 169 0
-488 -117 490 0
-401 -136 0
-29 410 0
-384 -93 385 0
-573 575 0
-331 337 0
-515 516 0
-374 375 0
-133 438 0
-778 -165 780 0
-938 -76 0
-277 -112 278 0
-238 12 0
-38 37 0
-558 559 0
-163 451 0
56 718 0
-81 978 0
-954 80 956 0
-508 136 509 0
-407 155 409 0
-519 523 0
-883 884 0
-459 100 460 0
-762 765 0
-441 442 0
-833 64 835 0
-162 -161 -8 -7 0
-965 967 0
-454 -166 0
-918 -121 0
-448 -163 450 0
-824 826 0
-845 -64 847 0
-382 384 0
-47 603 0
-84 83 0
-682 123 684 0
-862 175 864 0
-809 810 0
-108 894 0
-288 289 0
-707 714 0
-752 154 0
-46 576 0
-956 81 958 0
-571 574 0
-980 -83 0
-711 716 0
-366 -162 368 0
-997 159 998 0
-90 -89 -2 -1 0
-226 -8 227 0
-342 -26 344 0
-105 -27 0
-70 897 0
71 0
69 70 125 126 127 128 0
-34 33 0
-76 939 0
-98 97 0
-664 -52 666 0
-151 765 0
-866 -173 868 0
-758 761 0
-738 739 0
-943 944 0
-822 825 0
-153 -63 0
-480 482 0
-422 423 0
-301 304 0
-281 282 0
-884 886 0
50 647 0
30 403 0
-638 -93 640 0
-876 96 878 0
-861 174 863 0
-501 135 0
-296 23 298 0
-729 -138 0
-772 166 0
-633 95 0
-478 118 0
-732 -138 733 0
-144 143 0
-1004 -159 1006 0
-790 791 0
-806 -120 0
28 371 0
-631 94 633 0
-989 990 0
-535 114 0
-709 715 0
-274 -111 0
-428 -169 0
-900 -128 0
-394 -28 396 0
-744 151 746 0
-12 11 0
-532 533 0
-411 414 0
55 738 0
-932 -75 0
-666 -105 0
-924 75 926 0
-437 -133 0
-70 69 0
-104 -103 -72 -71 0
-827 -143 828 0
-857 858 0
-878 97 880 0
-903 104 0
-413 -32 0
-165 -47 0
-86 1000 0
-798 800 0
-740 741 0
-62 805 0
-599 600 0
-982 984 0
-218 8 220 0
-58 57 0
8 231 0
-559 45 561 0
-804 -62 0
-63 845 0
-653 106 655 0
-924 925 0
-399 401 0
-562 46 564 0
-341 342 0
-20 19 0
-547 133 548 0
-242 89 244 0
-681 688 0
-398 -30 399 0
-101 -49 0
-621 -171 623 0
-677 53 679 0
-680 54 682 0
-545 548 0
-311 -23 313 0
-684 124 0
-685 690 0
-507 135 508 0
-991 992 0
-223 226 0
38 496 0
-408 409 0
-996 159 0
-143 829 0
-970 971 0
-192 -4 194 0
-794 -60 796 0
-8 7 0
72 902 0
-72 71 0
-178 89 0
-712 713 0
-210 -123 0
-359 163 0
-917 918 0
-300 24 301 0
-99 -27 0
-491 -118 493 0
-239 115 0
-255 256 0
-814 143 816 0
-894 -109 0
-906 73 908 0
-896 -70 0
-884 -96 0
103 903 0
-722 -54 724 0
-779 780 0
-312 -24 314 0
-118 117 0
-771 166 773 0
-883 -95 0
-750 152 751 0
-509 137 510 0
-404 31 406 0
-921 -122 0
100 461 0
-201 204 0
-683 689 0
-712 137 0
-111 277 0
-406 32 408 0
-486 -38 488 0
9 10 105 106 0
-78 948 0
-206 -5 208 0
-50 638 0
-180 2 182 0
-115 -17 0
-350 -149 0
21 289 0
-44 43 0
-592 48 593 0
-73 919 0
-120 807 0
-460 101 0
41 532 0
-909 912 0
-588 589 0
-746 152 0
-851 853 0
-730 734 0
78 944 0
-63 825 0
103 0
-885 -96 886 0
-101 798 0
-444 165 446 0
-364 -161 366 0
-468 -101 470 0
-898 899 0
-74 931 0
-426 -32 428 0
-757 758 0
-695 -54 0
-315 316 0
37 475 0
-241 16 243 0
-51 691 0
-819 145 0
-132 437 0
60 787 0
-309 -22 311 0
-796 -101 0
-991 86 993 0
-499 500 0
-552 -44 554 0
-877 96 879 0
-46 598 0
-687 123 688 0
-314 -129 316 0
-32 416 0
-241 242 0
-947 -78 949 0
-28 0
-347 -148 0
-297 24 299 0
-243 89 0
-1008 1009 0
33 34 131 132 133 134 0
-65 849 0
-566 567 0
-172 0
62 810 0
-458 100 0
23 324 0
-891 892 0
-560 45 562 0
-93 643 0
-299 129 0
-830 -145 0
-378 -28 380 0
51 656 0
-375 93 377 0
-769 774 0
-9 233 0
-448 451 0
-428 429 0
-670 -105 671 0
-971 83 973 0
-773 776 0
-753 754 0
-92 91 0
-64 827 0
-356 161 0
-574 576 0
-817 818 0
-66 866 0
90 247 0
-231 161 0
-102 800 0
-606 -155 607 0
-296 297 0
-495 496 0
-123 -41 0
-354 355 0
-333 149 0
-699 702 0
-18 17 0
-879 97 0
-960 109 0
-237 238 0
-821 -62 823 0
-40 523 0
9 236 0
-18 282 0
-105 -15 0
-661 -50 663 0
83 0
-723 -55 725 0
-242 245 0
-222 223 0
-499 40 501 0
-562 563 0
-825 827 0
-882 -95 884 0
-300 303 0
-917 -74 0
-905 73 907 0
-52 670 0
-620 -48 622 0
-746 747 0
-749 151 750 0
-493 -119 0
-303 129 304 0
-374 92 376 0
-390 30 392 0
48 613 0
-109 895 0
-690 126 0
-983 -127 0
-930 931 0
-289 290 0
-970 82 972 0
99 286 0
-37 511 0
-563 141 565 0
-145 -75 0
-614 615 0
-194 -111 0
-199 6 201 0
-473 474 0
-649 657 0
-813 814 0
-54 723 0
-152 151 0
-422 170 424 0
-939 940 0
-777 -58 779 0
-863 175 0
-941 -153 0
-188 -2 190 0
-414 416 0
-356 357 0
-313 -24 315 0
36 472 0
-355 358 0
-540 541 0
-759 762 0
-638 643 0
-61 804 0
-186 111 187 0
-54 700 0
-78 77 0
33 439 0
-865 866 0
-455 36 457 0
-218 219 0
162 360 0
34 440 0
-282 283 0
-570 -44 572 0
16 242 0
-660 108 0
-402 403 0
-353 -150 0
-6 223 0
-467 -100 469 0
-951 80 0
-606 609 0
-737 -140 0
-285 286 0
-934 -76 935 0
-583 592 0
66 858 0
-756 -58 758 0
-834 65 836 0
-931 934 0
-198 5 200 0
-469 470 0
-348 351 0
-542 43 544 0
-328 329 0
-254 -91 256 0
-325 334 0
-3 205 0
-731 735 0
-691 -52 693 0
-794 795 0
-105 -35 0
-581 -144 0
-227 -141 0
-310 319 0
-474 476 0
79 954 0
-711 137 713 0
-27 378 0
148 0
-978 979 0
-196 197 0
-536 537 0
-799 801 0
-865 -66 867 0
47 592 0
-43 555 0
-544 44 0
-607 -156 608 0
-836 66 838 0
-983 985 0
44 559 0
-904 905 0
-263 264 0
11 238 0
-662 667 0
-842 159 844 0
-928 139 0
-962 -80 964 0
161 0
-57 777 0
-822 -63 824 0
-703 -124 704 0
12 239 0
-809 62 811 0
-447 448 0
-874 95 876 0
-666 669 0
-126 125 0
-646 647 0
-49 637 0
-748 58 749 0
-520 -135 521 0
-430 -170 431 0
-898 -126 0
-270 -17 272 0
-686 54 687 0
-174 871 0
-772 773 0
-733 -139 0
-330 331 0
-529 530 0
-385 -94 0
-309 310 0
-755 -57 757 0
-1007 88 0
54 707 0
-52 51 0
-208 212 0
-615 172 617 0
49 628 0
-839 840 0
-192 193 0
-172 171 0
-240 116 0
-591 596 0
-782 -167 0
-222 -6 224 0
-139 -61 0
-897 898 0
50 629 0
-290 115 0
-835 65 837 0
-376 377 0
-518 522 0
-114 0
-717 721 0
-333 338 0
-935 -139 0
-696 -123 0
-125 898 0
-51 667 0
-259 260 0
-381 383 0
-600 604 0
-964 965 0
7 0
-45 597 0
-1009 176 0
-764 767 0
-443 444 0
-963 966 0
-304 130 305 0
-768 769 0
-571 -45 573 0
-8 228 0
-285 99 0
-522 -137 0
-952 953 0
-45 574 0
-69 891 0
-807 -121 0
-111 -9 0
-415 -155 0
-48 47 0
87 995 0
-689 125 690 0
-340 -25 342 0
-567 143 569 0
-707 55 709 0
-112 111 0
-649 52 651 0
-936 -139 937 0
-150 530 0
-659 107 660 0
-553 554 0
-58 762 0
80 955 0
-196 4 198 0
-52 692 0
-901 72 0
-392 135 0
-540 42 542 0
-436 437 0
-741 58 743 0
-959 109 961 0
-100 99 0
-620 621 0
-618 173 0
-334 26 335 0
-178 179 0
-511 -38 513 0
-158 157 0
-769 165 771 0
-945 946 0
-723 730 0
-632 94 0
-244 90 0
-362 363 0
-434 -34 0
20 285 0
-183 185 0
-811 63 813 0
-886 888 0
-993 87 0
-26 25 0
-704 -125 705 0
-157 853 0
-146 145 0
-125 -61 0
-840 158 842 0
-518 -136 0
-521 -136 522 0
-658 106 659 0
-902 103 0
-633 636 0
-85 999 0
-534 535 0
-797 799 0
-4 206 0
-996 998 0
-938 939 0
43 546 0
-149 -33 0
-272 -18 0
64 834 0
-35 483 0
-599 -47 601 0
-451 -164 452 0
-680 681 0
-601 602 0
-67 881 0
-325 25 327 0
-349 -148 350 0
-1005 1006 0
-107 -59 0
-479 118 480 0
85 0
-792 103 0
-343 344 0
-525 -137 526 0
-315 -129 317 0
-22 21 0
-86 85 0
-335 147 336 0
19 287 0
-527 528 0
-464 -99 466 0
-868 -174 0
20 288 0
-410 411 0
-783 -166 784 0
-269 270 0
-805 -119 0
86 992 0
-327 26 329 0
-727 -137 729 0
-753 -56 755 0
45 582 0
-471 36 473 0
-82 0
31 418 0
-758 -151 0
-785 -168 0
-692 697 0
-415 417 0
-972 83 974 0
-132 131 0
-445 165 0
-47 620 0
-768 58 770 0
-706 54 708 0
-699 -124 0
-979 -83 981 0
-515 -40 517 0
-297 301 0
-661 662 0
-277 279 0
82 971 0
-937 -140 0
-986 84 0
-69 0
-986 987 0
-845 846 0
-743 750 0
-728 729 0
-607 610 0
-832 -146 0
-321 -130 322 0
-747 752 0
129 306 0
-388 29 390 0
-91 382 0
-517 -135 0
-326 25 328 0
-349 352 0
-56 754 0
-73 930 0
-853 855 0
-732 736 0
-654 655 0
-639 -93 641 0
-513 514 0
-916 920 0
-839 157 841 0
-153 942 0
2 178 0
-853 -158 854 0
-396 397 0
-50 662 0
-958 959 0
-317 318 0
175 1009 0
-395 398 0
-221 142 0
-306 130 307 0
-501 502 0
-200 201 0
-968 -109 969 0
-600 -48 602 0
-82 979 0
-243 244 0
-245 90 246 0
-32 427 0
-250 -89 252 0
-985 -128 0
-973 84 975 0
-568 569 0
-184 186 0
-316 -130 318 0
-106 105 0
-494 -120 0
-972 973 0
19 0
-994 88 0
-714 56 715 0
-62 822 0
22 290 0
-169 430 0
-264 112 266 0
-492 -119 494 0
-951 952 0
-505 136 506 0
-579 -143 0
-771 775 0
-1003 -88 1005 0
-149 529 0
-32 31 0
-960 961 0
-576 578 0
-819 820 0
-698 701 0
-626 -173 627 0
-942 -154 0
-399 -135 0
38 477 0
-623 -172 0
-236 237 0
-578 -142 579 0
87 1007 0
-888 -98 0
-1003 1004 0
-411 -31 413 0
117 0
-126 899 0
-622 -171 0
-907 74 909 0
88 1008 0
-121 -69 0
-593 155 594 0
-901 902 0
-26 348 0
-473 37 0
-77 940 0
-56 734 0
-701 704 0
-837 66 839 0
-522 526 0
-751 153 752 0
-83 982 0
9 0
-470 -102 0
-545 133 0
-827 829 0
-233 -10 0
15 241 0
-480 119 0
-302 305 0
-469 -101 0
-628 629 0
-244 246 0
-487 488 0
-909 121 0
-166 165 0
130 0
-930 -74 932 0
-489 -117 491 0
-824 -64 0
-911 121 912 0
-383 -93 0
-123 -17 0
65 857 0
-856 -160 0
-370 371 0
-424 171 0
-932 933 0
-761 -152 0
-984 -127 985 0
-950 -168 0
-695 696 0
-409 156 0
24 303 0
-472 37 474 0
-154 153 0
-879 880 0
-640 -94 642 0
-393 136 0
-801 -104 0
-990 146 0
-675 -108 0
-702 -125 0
-999 1000 0
-164 453 0
-514 520 0
67 68 69 70 107 108 109 110 0
-605 -156 0
-320 -129 321 0
-619 174 0
-761 764 0
-80 79 0
43 558 0
-805 806 0
-674 -107 675 0
-284 20 0
-726 727 0
-284 285 0
10 237 0
-123 -27 0
-319 -24 320 0
-177 2 0
-483 484 0
-225 227 0
-41 536 0
-347 350 0
-6 5 0
-826 -143 0
-899 -127 0
-672 675 0
97 0
-105 673 0
-926 76 928 0
-526 -138 0
-688 124 689 0
-676 677 0
-672 -107 0
-875 876 0
53 706 0
-512 519 0
-341 -25 343 0
-708 55 710 0
-797 -102 0
-41 549 0
-476 478 0
-36 484 0
-312 320 0
-662 -51 664 0
93 634 0
39 40 149 150 151 152 0
-585 48 587 0
-803 -61 0
-858 173 860 0
-779 -165 781 0
-789 102 791 0
-123 -37 0
-742 58 744 0
-316 322 0
-802 -60 0
-140 139 0
-71 913 0
-722 723 0
-283 -170 0
-786 787 0
-904 72 906 0
-370 28 372 0
-906 907 0
-763 -152 764 0
87 0
-528 529 0
-66 65 0
-668 671 0
-648 649 0
-417 -156 0
-642 -95 0
-189 -3 191 0
-390 391 0
-330 147 332 0
-209 -6 0
-421 170 423 0
-719 138 720 0
-816 144 818 0
-54 53 0
-446 166 0
-48 621 0
-25 345 0
-899 900 0
67 873 0
-338 150 0
-292 117 0
-141 578 0
-457 458 0
-49 661 0
-278 280 0
-999 -86 1001 0
-1008 175 0
-625 -173 0
-220 141 0
-589 156 591 0
-641 642 0
-475 38 476 0
-423 171 425 0
53 686 0
-948 -167 950 0
-7 226 0
-531 -152 0
-68 890 0
-36 464 0
-708 709 0
-693 694 0
-897 -125 0
-30 400 0
-892 893 0
-251 252 0
-256 -92 0
72 905 0
175 0
-850 -157 0
-255 -91 0
-577 -142 0
-435 436 0
-461 101 462 0
-114 113 0
-774 166 775 0
-82 968 0
-979 982 0
-575 577 0
-95 885 0
-177 178 0
-517 518 0
-487 -38 489 0
-163 -31 0
-40 39 0
-622 623 0
-885 887 0
-112 279 0
-180 181 0
-160 159 0
-964 -81 0
-651 105 653 0
-127 -73 0
-521 525 0
24 325 0
-961 110 0
-523 -135 524 0
129 0
-786 60 788 0
-368 -163 0
-364 365 0
-967 969 0
-506 510 0
-100 -99 -20 -19 0
-725 731 0
-826 828 0
-185 187 0
-678 53 680 0
-119 806 0
35 455 0
-894 895 0
-506 137 0
21 0
-311 312 0
36 456 0
-873 874 0
-651 658 0
-714 718 0
88 997 0
-555 -44 556 0
-158 855 0
-266 113 268 0
68 874 0
-940 941 0
-989 145 0
-481 119 482 0
-146 -145 -86 -85 -84 -83 0
-640 644 0
-734 -137 735 0
-657 105 658 0
-36 35 0
-718 137 719 0
-815 143 817 0
-474 38 0
-78 941 0
-702 705 0
-682 683 0
-215 7 217 0
-1000 -87 1002 0
-379 -91 381 0
81 970 0
-1007 1008 0
-623 625 0
-502 506 0
11 0
-424 425 0
-303 306 0
-376 93 0
-245 247 0
-585 593 0
-881 -68 883 0
-529 -150 0
-88 87 0
-645 -96 0
-667 -52 668 0
-207 -5 209 0
-429 431 0
-425 172 0
-292 293 0
-648 51 650 0
-327 335 0
-491 492 0
-504 135 505 0
-179 90 0
-601 -48 0
-537 -113 539 0
-98 -97 -80 -79 0
-265 112 267 0
-438 -134 0
-978 -82 980 0
-65 865 0
-554 557 0
-14 13 0
-233 234 0
-516 -135 518 0
-134 133 0
-165 783 0
-791 103 793 0
-276 278 0
-197 5 199 0
-859 860 0
-475 477 0
-724 -55 726 0
165 774 0
1 177 0
-28 379 0
-22 310 0
-295 300 0
-742 743 0
-358 360 0
-621 624 0
-500 505 0
-208 -6 210 0
-926 927 0
-260 18 262 0
-476 117 0
-982 -84 983 0
-226 228 0
-202 6 203 0
-717 139 0
-524 -136 525 0
-852 854 0
-931 -75 933 0
-667 670 0
-993 994 0
-671 -106 672 0
99 0
-992 995 0
-302 130 0
-916 -74 918 0
-934 936 0
-210 213 0
73 910 0
-10 9 0
-775 167 776 0
-957 82 959 0
-74 73 0
-495 38 497 0
-272 274 0
-754 759 0
-214 215 0
-477 479 0
-798 -102 799 0
-172 626 0
-848 -66 0
-18 275 0
-200 6 0
-598 603 0
-918 921 0
-60 803 0
-257 258 0
-291 116 0
-485 -37 487 0
-72 914 0
-205 -4 207 0
-602 605 0
-62 61 0
-582 583 0
-340 345 0
-569 144 0
-118 -117 -116 -115 -22 -21 -20 -19 0
-120 119 0
-344 -147 0
-543 547 0
-597 -46 599 0
-5 222 0
-483 -36 485 0
-465 466 0
-344 347 0
-497 39 499 0
-324 325 0
-700 -123 701 0
-185 111 0
-848 850 0
89 0
-669 672 0
-216 7 218 0
-207 208 0
-372 91 374 0
-108 107 0
-974 975 0
-833 834 0
-270 273 0
16 258 0
-781 -166 0
-436 -132 0
-155 -33 0
-551 -43 553 0
-142 580 0
-873 68 875 0
-151 531 0
-263 111 265 0
-549 -42 551 0
-677 686 0
-778 783 0
-238 239 0
-788 101 790 0
-725 -56 727 0
-541 546 0
-586 48 588 0
-224 -7 0
-246 91 0
-782 785 0
-831 -145 832 0
-846 849 0
-548 134 0
-27 394 0
-151 -45 0
-828 -144 0
27 370 0
-912 122 0
-257 16 259 0
5 202 0
-630 631 0
-246 248 0
-489 490 0
-188 189 0
-451 453 0
-482 120 0
-168 167 0
-510 138 0
-259 17 261 0
-182 3 0
-893 894 0
-430 432 0
-372 373 0
-231 232 0
-109 -71 0
-992 87 994 0
-190 -3 192 0
-713 717 0
-864 176 0
-944 167 946 0
-953 98 0
-419 169 421 0
-784 -167 785 0
-838 157 840 0
-755 756 0
-94 93 0
-418 32 420 0
-817 144 819 0
-881 882 0
-760 763 0
-439 440 0
-31 414 0
-197 202 0
-298 299 0
-654 106 0
-780 784 0
52 677 0
-440 163 442 0
-1006 -160 0
145 990 0
-410 -30 412 0
-739 57 741 0
-68 882 0
-807 808 0
-287 20 0
-905 910 0
-2 189 0
-224 225 0
-565 142 567 0
-846 -65 848 0
-549 550 0
21 294 0
-875 95 877 0
-710 56 712 0
-575 -141 0
-291 292 0
-141 -29 0
-229 -142 0
-496 39 498 0
-298 24 0
-914 -73 916 0
-694 698 0
-616 617 0
-414 -32 415 0
-895 -110 0
-765 -152 766 0
-387 29 389 0
-941 942 0
-627 -174 0
-275 -111 276 0
-591 157 0
-237 11 0
-144 0
-542 543 0
-550 -43 552 0
-463 464 0
-355 161 357 0
-760 -151 761 0
-576 -141 577 0
-803 804 0
-142 141 0
-58 778 0
-624 626 0
-503 507 0
-867 868 0
115 291 0
-220 221 0
-452 -165 0
-304 307 0
-377 94 0
-987 988 0
-866 869 0
116 292 0
-652 105 654 0
-205 206 0
-673 -106 674 0
-945 167 0
-404 405 0
-161 -17 0
-141 -39 0
-721 140 0
-33 434 0
-530 531 0
77 943 0
-107 893 0
-608 611 0
-759 -58 760 0
-68 67 0
-852 -158 0
-287 288 0
-92 384 0
-594 156 595 0
46 583 0
-144 831 0
32 419 0
-913 914 0
-612 613 0
-471 472 0
-668 -105 669 0
-350 353 0
-386 28 388 0
-764 -153 0
-23 339 0
-597 598 0
-412 -31 0
-889 -68 0
-733 737 0
-796 797 0
-602 -155 0
-650 52 652 0
-318 -131 0
-781 782 0
-397 399 0
-53 697 0
-980 981 0
-339 340 0
73 922 0
-317 -130 0
-198 199 0
-538 539 0
-735 -138 736 0
-1005 -159 0
-512 -39 514 0
-975 127 977 0
74 923 0
-863 864 0
-157 -57 0
-40 528 0
-35 463 0
-406 407 0
-167 -65 0
-610 -157 611 0
-770 165 772 0
-135 -33 0
-265 266 0
-267 113 0
-617 173 619 0
-328 26 330 0
-416 -155 417 0
-343 -26 0
-590 591 0
-131 -27 0
-301 129 302 0
-449 450 0
-462 102 0
-128 127 0
-603 -48 604 0
-710 711 0
-915 916 0
-280 -114 0
-15 269 0
-80 963 0
-332 333 0
-564 141 566 0
-472 475 0
-30 411 0
-273 275 0
-75 934 0
-736 -139 737 0
-843 159 0
-777 778 0
-893 -108 0
-5 211 0
-841 842 0
-194 195 0
-174 173 0
-892 -107 0
-766 -153 767 0
-443 164 445 0
-147 -17 0
-378 379 0
-520 524 0
-496 503 0
-456 99 458 0
-655 107 0
-66 0
-113 -19 0
-427 -169 429 0
-127 900 0
-966 968 0
-42 41 0
-908 909 0
-261 262 0
-383 385 0
-43 570 0
-173 869 0
-23 319 0
117 479 0
-586 587 0
-849 851 0
-445 446 0
-288 21 0
-66 851 0
-650 651 0
-770 771 0
-397 -30 0
-55 753 0
-539 -114 0
-450 452 0
-954 955 0
-313 314 0
-329 147 331 0
-123 703 0
-367 -163 369 0
5 214 0
-635 95 636 0
-497 498 0
-653 659 0
-837 838 0
-176 175 0
6 215 0
-217 8 219 0
-105 235 0
-76 936 0
-55 730 0
2 181 0
-365 -162 367 0
-453 -165 454 0
-380 381 0
-239 240 0
-201 123 0
-323 -132 0
-310 -23 312 0
-117 -27 0
-927 139 929 0
-564 565 0
-15 249 0
-642 645 0
