p cnf 1063 2002
-102 101 0
9 234 0
-815 -64 0
-135 598 0
-647 -52 648 0
-511 165 512 0
-306 307 0
-442 446 0
-868 869 0
-233 -118 0
-1038 -141 1039 0
-841 148 0
-395 -162 396 0
-631 632 0
-11 260 0
-232 -117 0
-962 80 963 0
-1057 173 1059 0
-417 -157 418 0
-912 124 0
-764 -121 0
-28 27 0
121 910 0
-693 168 0
-610 611 0
-761 -119 762 0
-489 492 0
-137 794 0
-815 816 0
-148 147 0
-290 143 0
-1011 123 0
-790 -138 0
-557 558 0
179 0
-572 45 574 0
-818 819 0
-869 172 871 0
-575 46 577 0
-209 7 211 0
-882 883 0
-872 173 0
-1018 1022 0
-357 359 0
-959 152 961 0
-713 -95 715 0
-566 -44 0
-354 -125 0
-246 -12 248 0
-419 420 0
-687 165 689 0
-386 -28 388 0
-901 905 0
-565 -43 0
-624 625 0
2 184 0
75 928 0
-162 161 0
-480 145 481 0
-73 913 0
-502 507 0
-567 -117 0
-603 604 0
-219 221 0
-151 -53 0
-424 426 0
-44 567 0
-23 361 0
-928 929 0
-686 691 0
-323 103 324 0
-486 487 0
-1047 154 0
-132 0
-561 -104 562 0
-447 127 448 0
-244 249 0
-345 346 0
43 571 0
-24 23 0
-536 41 538 0
52 656 0
-971 -80 0
-690 693 0
80 983 0
-150 149 0
-670 671 0
-228 229 0
-445 128 446 0
-1053 1055 0
-854 855 0
-213 214 0
-578 136 580 0
-679 -145 680 0
-640 131 642 0
69 866 0
37 505 0
-202 -6 0
-374 161 376 0
-838 68 839 0
-40 550 0
110 0
-957 964 0
-958 151 960 0
-737 738 0
-353 355 0
-76 75 0
-847 -147 849 0
-224 -169 0
-422 112 0
-117 568 0
-895 -99 897 0
-1062 1063 0
-941 944 0
-921 922 0
-280 281 0
-159 607 0
-45 592 0
-996 110 0
14 269 0
-605 606 0
-862 864 0
-142 0
-663 664 0
99 987 0
-542 545 0
-2 1 0
-198 126 0
-664 147 0
-121 -63 0
-122 121 0
-988 989 0
-264 266 0
-1036 -88 1037 0
49 613 0
-1007 1012 0
-626 -114 0
-772 137 774 0
-968 -79 970 0
-510 164 511 0
-209 210 0
-188 4 0
-652 -131 0
-548 106 0
-1029 141 1031 0
-139 948 0
-593 -135 594 0
-913 -74 915 0
-646 -52 0
-685 54 687 0
-796 -140 0
-136 135 0
-288 18 290 0
-754 122 0
-597 600 0
-476 481 0
-577 578 0
-937 141 939 0
-442 128 0
-554 561 0
-440 127 442 0
-312 94 0
-902 903 0
-608 -48 0
-306 -155 0
-35 488 0
-723 725 0
-46 595 0
-656 53 658 0
-254 13 256 0
-808 -179 810 0
179 533 0
-977 -152 978 0
-404 155 406 0
-711 -56 713 0
-922 -123 0
-794 -138 795 0
-380 162 381 0
-349 -22 351 0
-182 181 0
-662 146 664 0
-969 970 0
-628 -114 629 0
-828 829 0
-960 152 0
-303 156 0
-998 -83 1000 0
-59 782 0
-649 651 0
-53 676 0
-769 61 771 0
-75 923 0
82 986 0
-986 99 0
-367 -152 0
-918 -121 920 0
-9 230 0
-711 712 0
-50 49 0
-562 -105 563 0
-975 -152 0
-789 -137 790 0
56 704 0
-683 -147 684 0
-775 138 0
-652 654 0
-793 -139 0
-453 454 0
-227 117 229 0
-59 759 0
-513 -36 515 0
22 338 0
-496 -146 0
-140 950 0
-156 417 0
-809 -180 811 0
-637 638 0
-680 -146 681 0
-195 196 0
-795 -139 796 0
-96 95 0
-343 125 345 0
-762 764 0
-904 76 905 0
-376 162 0
-522 -163 523 0
-320 322 0
-695 -165 697 0
-945 -139 0
-532 179 0
-908 911 0
-524 528 0
-837 68 0
34 447 0
103 546 0
-117 -15 0
-305 -155 307 0
-46 45 0
-829 831 0
-939 142 0
-228 117 0
-110 109 0
-61 788 0
64 819 0
-551 552 0
-493 -145 0
178 0
82 989 0
-255 14 257 0
-268 14 270 0
-5 203 0
-974 -151 975 0
-87 1036 0
-60 761 0
-1016 -85 1018 0
-185 92 0
-774 780 0
-876 -171 0
-1014 124 0
-156 155 0
-37 521 0
-265 -161 0
-214 150 0
-681 684 0
-88 1049 0
-1001 1002 0
-516 522 0
-239 242 0
-11 249 0
-331 -101 333 0
-7 219 0
-860 -69 0
-928 76 930 0
-685 686 0
-952 78 954 0
-783 -61 785 0
-243 -10 245 0
-66 843 0
-82 81 0
85 1012 0
-1010 1011 0
-505 509 0
-50 644 0
-427 428 0
-600 -138 0
-286 287 0
-48 604 0
-429 -111 431 0
-611 612 0
-365 -150 0
-62 791 0
-490 493 0
-963 151 964 0
-660 145 662 0
-326 -21 328 0
-403 30 405 0
-17 304 0
-364 -149 0
-936 937 0
-1027 88 1029 0
-654 -132 0
-881 -174 0
-877 879 0
-133 -15 0
-452 -33 454 0
-572 581 0
1 0
-576 583 0
-677 680 0
-194 6 196 0
37 0
84 1007 0
-588 -45 590 0
-1002 1005 0
-982 983 0
-1063 -174 0
-857 160 0
-733 -57 735 0
58 725 0
-885 98 0
-970 -80 972 0
-892 -97 894 0
-1046 1047 0
-16 281 0
-399 400 0
-604 605 0
-220 222 0
-28 392 0
-597 -137 0
-623 628 0
-889 100 0
-663 146 0
-842 -66 844 0
-439 34 441 0
-694 -54 696 0
-807 812 0
-1023 -124 0
-811 814 0
32 420 0
-130 129 0
-875 878 0
-187 3 0
-193 194 0
-412 415 0
-1043 90 1045 0
-263 -14 0
-34 483 0
-863 -159 0
-807 -179 809 0
-858 859 0
-1000 1004 0
-717 718 0
-446 129 0
-596 599 0
66 835 0
-56 55 0
-134 401 0
-616 114 618 0
-989 83 991 0
-1042 1043 0
-401 402 0
-862 -70 863 0
-537 541 0
-151 -61 0
-260 261 0
-863 865 0
-23 353 0
-41 564 0
-784 785 0
-332 -102 334 0
-983 167 0
-250 -133 251 0
-320 102 0
-804 181 805 0
-789 792 0
-725 105 726 0
-769 770 0
-947 -140 0
-855 159 857 0
-245 -11 247 0
-327 328 0
-186 187 0
-171 612 0
-590 -46 0
-423 112 424 0
-545 105 0
-285 17 287 0
-589 593 0
-4 200 0
-836 837 0
-363 -26 0
-956 957 0
-835 838 0
-13 272 0
-953 962 0
-393 396 0
-345 126 347 0
-437 438 0
111 423 0
-811 -181 0
-678 -146 0
96 709 0
-116 115 0
-698 699 0
91 185 0
-456 461 0
79 0
-622 -50 624 0
-169 225 0
-810 -180 0
-676 -54 677 0
-660 667 0
31 435 0
4 189 0
-325 -20 327 0
-266 -161 267 0
-645 646 0
-717 -97 0
-24 355 0
-664 669 0
-734 -58 736 0
-644 647 0
-104 103 0
-887 889 0
-169 -27 0
-60 783 0
-387 388 0
-1021 -86 1022 0
-444 448 0
-29 398 0
-167 -61 0
-295 -18 0
29 30 133 134 135 136 0
-10 231 0
-366 367 0
-508 512 0
-131 -59 0
-571 572 0
-938 141 0
51 655 0
-314 21 316 0
-338 23 340 0
42 543 0
-90 1061 0
-479 144 480 0
-30 29 0
-896 897 0
-119 -49 0
-348 128 0
-773 137 775 0
-468 477 0
-519 -163 0
-506 163 507 0
-234 235 0
-837 839 0
-308 20 0
-914 -75 916 0
-433 434 0
-55 731 0
-546 104 547 0
-850 68 852 0
-10 244 0
-617 618 0
-458 462 0
-743 744 0
-954 79 956 0
-5 215 0
-942 943 0
-369 27 371 0
-763 765 0
-377 163 0
-169 -37 0
-87 1048 0
-223 -8 0
-927 -124 0
-239 133 0
-583 136 584 0
-626 627 0
-657 53 659 0
-379 161 380 0
-31 427 0
-164 163 0
-533 180 0
-704 707 0
-947 949 0
-1004 -109 1005 0
167 0
-92 -91 -2 -1 0
-988 82 990 0
-1019 -86 0
-810 811 0
-359 -127 360 0
-151 367 0
-1032 -86 1034 0
-368 369 0
-25 363 0
-504 508 0
-567 568 0
-49 643 0
-830 832 0
-669 148 0
-347 348 0
-413 -155 0
-627 -115 0
-688 692 0
-751 752 0
85 1024 0
-90 89 0
-759 -60 760 0
-672 673 0
-853 70 855 0
-230 231 0
-610 -170 0
-352 354 0
-746 60 748 0
-470 478 0
-770 62 772 0
-294 295 0
-948 -140 949 0
-880 -173 881 0
-361 -24 0
-77 967 0
-514 -37 516 0
-697 701 0
-293 296 0
-151 -29 0
-412 -155 414 0
-179 812 0
-66 832 0
-739 740 0
-16 15 0
-411 -30 413 0
-618 621 0
-861 863 0
-959 965 0
-759 761 0
-361 362 0
-888 99 889 0
-77 944 0
-438 444 0
-802 805 0
-307 -156 0
-765 -121 766 0
-430 -112 432 0
-943 945 0
90 1057 0
178 532 0
-189 101 0
-806 807 0
-544 547 0
-4 3 0
76 929 0
-870 871 0
-223 224 0
30 404 0
37 529 0
-55 711 0
-387 -28 0
-990 991 0
-485 489 0
38 530 0
-16 293 0
-281 -111 283 0
-407 408 0
-247 -12 0
81 985 0
-745 59 747 0
-67 858 0
-235 11 237 0
41 540 0
-290 291 0
-139 -65 0
-165 700 0
-589 -46 591 0
55 703 0
-753 121 0
165 691 0
-825 132 0
-333 334 0
-833 -132 0
-125 -9 0
-346 127 348 0
-208 7 210 0
-799 800 0
-678 681 0
-138 137 0
-217 -7 0
-339 23 341 0
-436 443 0
-464 -128 465 0
-778 137 779 0
-1017 -85 1019 0
181 182 0
-1051 -90 0
3 0
-983 984 0
-842 843 0
-748 119 750 0
-201 202 0
-740 -107 742 0
-504 164 0
-420 423 0
-400 401 0
-149 -17 0
-78 946 0
-8 224 0
-302 155 0
92 311 0
-477 36 478 0
-64 63 0
-482 -34 484 0
-483 488 0
-670 -52 672 0
-1050 1051 0
-368 26 370 0
-161 395 0
-159 -53 0
-268 269 0
-788 791 0
-1005 -110 0
-210 8 212 0
-467 468 0
-17 296 0
-651 653 0
-690 167 0
-1033 -87 1035 0
-278 111 0
-182 -181 0
-133 -23 0
-487 -143 0
-525 -163 526 0
-609 -169 0
-726 106 0
-335 336 0
-967 -78 969 0
-488 -36 489 0
-1028 88 1030 0
-455 456 0
-975 978 0
-375 162 377 0
-453 -33 455 0
-639 640 0
-135 402 0
-537 42 539 0
-197 198 0
45 46 47 48 157 158 159 160 0
-319 321 0
-832 -131 833 0
-568 -118 0
-459 463 0
-467 34 469 0
106 729 0
-836 67 0
-60 59 0
-202 204 0
-174 0
-764 766 0
-124 123 0
-984 168 0
-1002 -109 0
-19 325 0
-1059 174 0
-322 324 0
91 0
-565 566 0
-992 84 0
25 368 0
-823 131 825 0
-406 156 408 0
-701 -167 702 0
-819 65 821 0
-466 -130 0
-890 891 0
97 886 0
-498 37 500 0
-691 166 692 0
-831 833 0
-773 774 0
-1036 1038 0
-355 -125 356 0
-366 -151 0
-648 -129 0
-623 -113 625 0
-170 169 0
-275 -176 0
-728 107 0
-36 514 0
-14 273 0
-816 817 0
-515 516 0
-291 144 0
-394 397 0
-374 375 0
-1020 1023 0
-899 904 0
-736 -105 738 0
-238 12 0
-38 37 0
13 268 0
-757 -59 0
62 798 0
-1024 1025 0
-903 906 0
81 0
-554 -103 556 0
-459 -34 460 0
-36 491 0
-465 -129 466 0
-441 442 0
-300 301 0
54 686 0
-591 -135 0
-47 603 0
-183 184 0
-1055 -154 0
-84 83 0
-246 250 0
-497 36 499 0
-800 180 802 0
-85 1021 0
-215 -6 217 0
-445 449 0
94 0
-288 289 0
-231 -117 233 0
-715 -96 717 0
-145 682 0
-541 103 542 0
-1017 1018 0
-468 35 470 0
-180 -179 -178 -177 -38 -37 0
-86 1033 0
-876 877 0
-43 586 0
-865 -160 0
-797 798 0
-102 -101 -4 -3 -2 -1 0
-276 16 278 0
71 0
-34 33 0
-1060 1061 0
-98 97 0
79 962 0
-523 -164 524 0
-296 298 0
-830 -66 831 0
-219 -8 220 0
-632 51 634 0
105 727 0
-335 -103 0
-118 569 0
-1048 1049 0
22 319 0
-747 748 0
-949 -141 0
-606 607 0
-563 -106 0
-887 99 0
-144 143 0
-866 70 868 0
-26 364 0
-911 123 912 0
61 777 0
-120 765 0
-186 2 0
-319 101 320 0
-723 58 724 0
-1003 -84 1004 0
5 207 0
-490 -144 0
-1010 86 0
-809 813 0
-12 11 0
-532 533 0
-201 -5 0
6 208 0
-1035 -88 0
-82 998 0
-70 69 0
-33 482 0
-78 968 0
-844 -67 846 0
-524 -165 0
-1034 -87 0
-165 -47 0
-274 275 0
-419 32 421 0
-49 622 0
-389 -28 390 0
-636 129 638 0
-556 562 0
-915 -75 917 0
-356 358 0
-70 864 0
-394 -163 0
-489 -143 490 0
-451 -32 453 0
-33 459 0
-58 57 0
-434 -114 0
-321 102 322 0
-155 -25 0
-727 106 728 0
2 187 0
-341 342 0
-27 389 0
-261 -13 263 0
-534 40 536 0
-20 19 0
-190 102 0
-724 726 0
-721 57 0
-545 548 0
-929 77 931 0
-43 566 0
-7 223 0
-737 -105 739 0
50 614 0
-700 -166 701 0
-1009 86 1011 0
-396 -163 397 0
-850 851 0
-280 -16 282 0
-768 777 0
-858 -68 860 0
-8 7 0
-1034 1035 0
-113 628 0
-72 71 0
-987 100 0
-547 105 548 0
-392 395 0
-920 -122 922 0
-591 594 0
27 378 0
-369 378 0
28 0
-917 918 0
-776 139 0
-520 -164 0
38 509 0
-193 5 195 0
-659 660 0
-788 -62 789 0
-262 -13 0
-1022 -123 1023 0
-573 45 575 0
-118 117 0
-272 -14 274 0
-870 172 872 0
-216 219 0
-921 -122 0
-973 -80 974 0
-559 -42 560 0
-594 -136 0
-710 98 0
-408 157 410 0
-541 544 0
-991 84 993 0
-834 66 836 0
-145 -45 0
-1008 85 1010 0
-431 -112 433 0
-263 265 0
-586 -44 588 0
-771 62 773 0
-662 668 0
-846 847 0
-1020 -123 0
-705 706 0
-171 -61 0
-44 43 0
-382 164 0
-18 0
-801 180 0
-89 1060 0
-1030 1031 0
-899 75 901 0
-171 878 0
-909 912 0
-347 127 0
-588 589 0
-388 391 0
-1015 1016 0
-593 596 0
-414 -156 0
-573 574 0
-755 -58 757 0
-840 147 841 0
-126 0
-229 118 0
-792 795 0
-671 676 0
-1035 1037 0
-910 122 911 0
-849 -148 0
-57 755 0
-898 899 0
-9 243 0
-757 758 0
-976 979 0
-848 -147 0
-720 57 722 0
-576 135 578 0
-315 316 0
-362 -25 0
-873 174 0
-839 841 0
-314 317 0
71 882 0
-635 52 637 0
-196 125 198 0
112 425 0
-499 500 0
-918 925 0
-178 177 0
-137 -51 0
-708 97 0
-518 523 0
-990 83 992 0
-460 464 0
-824 825 0
-922 927 0
-999 -83 1001 0
-261 264 0
-242 134 0
-785 789 0
-499 37 501 0
-1008 1009 0
-111 -21 0
-20 326 0
-437 33 439 0
-566 567 0
-1044 90 1046 0
16 285 0
-949 951 0
-704 95 706 0
93 0
-63 815 0
-951 -142 0
-1053 -153 0
-386 390 0
-308 309 0
-933 139 935 0
-633 634 0
-812 -180 813 0
-890 -72 892 0
-753 754 0
-92 91 0
-64 827 0
-552 -42 554 0
-169 -13 0
-560 -103 561 0
-18 305 0
-675 -145 0
-269 175 271 0
-835 67 837 0
-31 451 0
-758 760 0
-316 318 0
19 308 0
-925 -122 926 0
-820 821 0
-699 702 0
-814 -182 0
-935 140 937 0
-18 17 0
56 720 0
-884 885 0
-383 -26 385 0
-241 133 242 0
-363 364 0
-883 886 0
-421 422 0
59 767 0
-240 12 241 0
-222 -150 0
91 310 0
-894 -98 896 0
-722 58 0
-304 305 0
-839 147 0
-446 450 0
-618 115 0
-883 97 885 0
-432 -113 434 0
-731 732 0
-641 131 0
-930 931 0
-169 0
-820 65 822 0
-732 -57 734 0
-1006 84 1008 0
-1056 1057 0
-409 410 0
-824 131 0
-493 496 0
-473 474 0
-143 -29 0
-152 151 0
181 0
-463 -127 464 0
-624 -113 626 0
-414 416 0
-997 998 0
-421 111 0
-215 216 0
-507 164 508 0
-982 80 0
9 226 0
-943 -78 0
73 0
-297 299 0
-158 606 0
-76 941 0
-300 18 302 0
-78 77 0
-315 21 0
-539 542 0
-119 570 0
-570 -120 0
-282 283 0
-985 986 0
-666 145 667 0
-322 103 0
-585 138 0
-689 166 0
-115 -57 0
101 321 0
-349 350 0
-230 -10 232 0
-790 793 0
-393 -162 394 0
-469 470 0
-802 181 0
-435 32 437 0
27 0
76 907 0
-972 -151 0
35 497 0
-415 -156 416 0
78 953 0
41 42 43 44 117 118 119 120 0
-747 60 749 0
-211 212 0
-813 -181 814 0
-469 35 471 0
-536 537 0
-256 14 258 0
-425 113 426 0
-668 147 669 0
-709 97 710 0
-62 807 0
-498 505 0
40 0
-278 279 0
-856 159 0
-297 -143 0
-643 -50 645 0
-1058 173 0
-321 323 0
-926 -123 927 0
-502 163 504 0
-725 727 0
-780 139 781 0
-456 -127 458 0
-204 206 0
-126 125 0
-1037 -141 0
93 312 0
-682 -146 683 0
-742 -108 0
-971 972 0
-189 190 0
-234 10 236 0
-529 530 0
-1041 89 1043 0
-448 128 449 0
-72 891 0
-35 513 0
-309 310 0
-713 714 0
-592 595 0
-52 51 0
-6 0
-298 -143 299 0
-327 -21 329 0
-83 1003 0
-172 171 0
-151 -35 0
-619 114 620 0
-677 -145 678 0
-79 973 0
-256 257 0
-730 108 0
-376 377 0
-528 -166 0
-473 143 475 0
-838 840 0
-381 163 382 0
-598 -136 599 0
-777 62 778 0
-56 732 0
-333 -102 335 0
1 183 0
32 436 0
-779 138 780 0
-195 6 197 0
-336 -104 0
-944 -78 945 0
29 403 0
-34 463 0
-706 708 0
-302 303 0
-539 103 0
-32 428 0
26 369 0
-16 0
-340 24 342 0
-952 953 0
-328 -22 330 0
-577 135 579 0
-639 130 641 0
-389 392 0
98 888 0
-85 1032 0
-248 251 0
-48 47 0
-613 50 615 0
-786 -62 0
-112 111 0
-1015 -84 1017 0
-155 415 0
-694 695 0
57 743 0
-401 -135 0
-29 411 0
-472 479 0
-553 554 0
-252 253 0
-901 76 903 0
-550 559 0
-151 979 0
-494 -144 495 0
-1019 1020 0
-767 60 769 0
-274 -175 0
-605 -158 0
-371 28 373 0
-961 966 0
-100 99 0
-449 129 450 0
-158 157 0
4 192 0
10 235 0
-503 504 0
-362 363 0
1 186 0
-51 670 0
-886 888 0
-89 1052 0
179 803 0
-508 165 0
-687 688 0
-64 816 0
-26 25 0
-245 246 0
-204 -125 0
-146 145 0
95 0
-617 114 0
-507 511 0
86 1025 0
-429 430 0
-900 75 902 0
-51 647 0
-766 -122 0
-555 556 0
-351 -23 0
-621 116 0
-692 167 693 0
-613 614 0
-492 495 0
-534 535 0
-355 357 0
72 0
-301 155 303 0
-409 157 0
-938 939 0
-1040 88 1042 0
-205 -125 206 0
-273 -175 275 0
108 0
-655 52 657 0
-276 277 0
-424 113 0
-53 694 0
-879 881 0
-1052 -90 1053 0
-985 82 0
-931 78 933 0
68 840 0
-601 602 0
-422 424 0
-555 -103 557 0
-679 682 0
-797 62 799 0
-558 563 0
-70 875 0
-42 565 0
-599 -137 600 0
16 277 0
-484 485 0
-299 -144 0
-343 344 0
-518 -163 520 0
-946 948 0
-22 21 0
-957 151 959 0
-726 728 0
-86 85 0
-150 366 0
-226 227 0
-1009 1013 0
-90 1054 0
-642 132 0
-791 -137 792 0
-852 853 0
-934 139 936 0
-735 736 0
-471 36 473 0
-770 778 0
-52 649 0
-415 417 0
-132 131 0
-602 -47 0
-919 920 0
-235 240 0
39 0
-21 349 0
-817 -116 0
-371 379 0
-38 525 0
-495 -145 496 0
-816 -115 0
-661 662 0
-316 22 0
-540 543 0
-61 806 0
-1025 87 1027 0
-360 -128 0
-986 987 0
-384 -27 386 0
-936 140 938 0
-1061 -173 1063 0
-403 404 0
-433 -113 0
-262 263 0
-220 -149 0
-370 27 372 0
-1049 1052 0
-674 -54 0
-170 611 0
-236 11 238 0
-203 205 0
-54 679 0
15 284 0
-979 -152 980 0
-791 794 0
-771 772 0
-48 609 0
-661 145 663 0
-455 -34 457 0
-329 330 0
81 988 0
-976 -151 977 0
-513 514 0
-282 -111 0
-916 -76 918 0
-1037 1039 0
87 1040 0
-310 92 0
-391 -162 0
-768 61 770 0
-686 165 688 0
-998 1003 0
-978 981 0
-94 -93 -92 -91 -20 -19 0
-476 145 0
-958 959 0
88 1041 0
-1045 153 1047 0
67 838 0
-515 -37 517 0
-721 722 0
-501 502 0
-83 1015 0
-720 723 0
-861 -70 0
-180 179 0
-503 163 0
55 719 0
-100 -99 -82 -81 0
-905 121 906 0
-647 649 0
-904 907 0
-582 135 583 0
-535 41 537 0
-783 788 0
11 240 0
-243 244 0
-568 569 0
-486 -36 0
-787 790 0
-767 768 0
-106 105 0
19 0
-125 357 0
-226 10 228 0
-451 452 0
-63 826 0
-206 -126 0
-373 161 375 0
-310 311 0
-792 -138 793 0
-1031 142 0
-950 -141 951 0
-635 636 0
-516 -38 518 0
-388 -161 0
-743 58 745 0
-834 835 0
-540 42 541 0
-864 -159 865 0
-32 31 0
-960 961 0
-699 -167 0
-350 -23 352 0
-6 205 0
-993 109 0
-776 781 0
-236 237 0
-44 587 0
-760 762 0
-318 320 0
72 883 0
-407 156 409 0
-530 177 0
-574 46 576 0
-580 585 0
-944 946 0
-522 526 0
-745 746 0
-483 -35 485 0
-458 -128 0
-317 22 318 0
-512 166 0
-248 -133 0
-149 -11 0
-457 -127 0
-1024 86 1026 0
-166 165 0
-774 138 776 0
-13 264 0
-627 630 0
-756 -59 758 0
40 535 0
-370 371 0
-14 0
-330 -101 332 0
-932 933 0
-871 173 873 0
-126 359 0
-211 8 213 0
-418 -158 0
-914 923 0
107 0
77 952 0
-154 153 0
-674 675 0
-452 459 0
17 300 0
-232 233 0
-781 140 0
-75 940 0
-354 356 0
-615 113 617 0
65 834 0
-999 1000 0
-356 -126 0
-634 52 636 0
-656 665 0
-217 218 0
-658 54 660 0
-578 584 0
-41 559 0
-334 -103 336 0
-741 742 0
-296 -18 297 0
-80 79 0
-167 -69 0
-803 180 804 0
-924 -121 925 0
-896 -99 0
-472 143 474 0
-491 -143 492 0
-906 122 0
-284 285 0
-46 602 0
-52 671 0
-625 629 0
-488 491 0
60 768 0
-808 809 0
-244 -11 246 0
-149 365 0
-6 5 0
-872 873 0
-324 104 0
-527 -165 528 0
-294 -17 0
45 581 0
-14 266 0
-992 993 0
-351 352 0
-341 24 343 0
-329 -22 331 0
-47 0
83 994 0
-505 38 506 0
-750 120 752 0
-65 830 0
-410 158 0
-655 656 0
-860 861 0
-719 720 0
74 0
-157 -35 0
-544 104 545 0
-1044 1045 0
-70 0
-289 143 291 0
-602 603 0
-218 220 0
10 227 0
-851 69 853 0
3 188 0
-801 802 0
-680 683 0
-140 139 0
-703 56 705 0
-117 -21 0
-786 787 0
-955 80 957 0
-500 506 0
-192 5 194 0
-1056 90 1058 0
-727 729 0
-845 -68 847 0
-893 -98 895 0
-961 153 0
73 898 0
-1052 1054 0
-66 65 0
-71 890 0
-478 143 479 0
74 899 0
102 323 0
-798 179 800 0
-357 -126 358 0
-625 -114 627 0
-270 271 0
-531 532 0
-673 677 0
-81 997 0
-856 857 0
-702 -168 0
-614 619 0
18 301 0
-715 716 0
-594 597 0
-54 53 0
-402 -136 0
-955 963 0
-607 -160 0
-738 -106 740 0
-337 338 0
-22 350 0
-1040 1041 0
-798 803 0
-946 -139 947 0
-117 -31 0
-606 -159 0
-457 458 0
-475 144 0
-907 121 908 0
-271 176 0
-197 125 0
-930 77 932 0
-821 66 823 0
47 48 169 170 171 172 0
-859 -69 861 0
-782 783 0
-641 642 0
-199 200 0
-1012 86 1013 0
-884 97 0
33 443 0
-633 51 635 0
-342 125 344 0
-461 465 0
67 850 0
-184 185 0
3 191 0
-251 -134 0
-763 -120 764 0
-383 384 0
-646 648 0
-428 -111 430 0
-614 113 616 0
-991 995 0
-129 651 0
-852 69 854 0
-644 -51 646 0
-760 -119 0
-970 974 0
-90 0
-806 -62 808 0
11 252 0
-892 893 0
-932 78 934 0
-787 -137 0
-592 -46 593 0
-956 80 958 0
175 0
-651 -130 652 0
12 253 0
-436 33 438 0
-1030 141 0
-352 -24 0
-435 436 0
-441 127 0
-775 776 0
-584 137 585 0
-114 113 0
-868 171 870 0
-311 93 0
-649 -129 650 0
-474 480 0
-517 518 0
-470 36 472 0
-1048 -88 1050 0
-684 -148 0
-212 149 214 0
-1001 -84 0
-358 -127 0
-32 452 0
-749 119 751 0
-1050 -89 0
-159 -61 0
-40 39 0
-622 623 0
-885 887 0
-200 203 0
-1060 -90 1062 0
-160 159 0
-1026 1027 0
-438 34 440 0
-905 908 0
-521 525 0
-1026 87 1028 0
-543 103 544 0
-785 -62 787 0
15 276 0
-364 365 0
-506 510 0
-569 570 0
-653 -131 654 0
-968 973 0
-689 690 0
-894 895 0
-247 248 0
-444 127 445 0
-130 653 0
-972 975 0
-311 312 0
-3 199 0
-875 -171 877 0
-431 432 0
-115 817 0
-615 616 0
-696 -165 698 0
-878 880 0
-827 -65 829 0
-151 -67 0
-917 -76 919 0
-400 -134 0
-295 297 0
-681 -147 0
20 309 0
-603 -48 0
-940 941 0
-129 -43 0
-399 -133 0
-249 -12 250 0
-761 763 0
-549 -40 551 0
-147 -61 0
-450 130 0
-461 -128 462 0
-604 -157 0
-36 35 0
-474 144 476 0
-531 178 0
-945 947 0
-672 -53 674 0
-440 445 0
68 851 0
-557 -104 0
-866 867 0
-45 601 0
-948 950 0
-843 -67 845 0
-891 -97 893 0
-784 -61 786 0
7 8 169 170 0
96 0
-822 66 824 0
-749 750 0
-88 87 0
-608 609 0
-487 490 0
-509 163 510 0
-909 123 0
-553 -42 555 0
-221 -149 222 0
75 904 0
-969 -79 971 0
-292 293 0
-1016 1021 0
-225 -170 0
-729 107 730 0
-156 0
-14 13 0
-283 -112 0
-942 -77 0
-199 -4 201 0
-517 -38 519 0
109 0
-134 133 0
-427 -32 429 0
-260 -12 262 0
-372 28 374 0
83 1006 0
-65 842 0
-358 360 0
-237 241 0
-1049 -89 1051 0
-1000 -84 1002 0
-867 171 869 0
-207 6 209 0
-481 146 0
-405 155 407 0
-882 72 884 0
-119 763 0
-405 406 0
-74 914 0
63 64 115 116 0
-47 608 0
-462 -129 0
-203 -6 204 0
-24 362 0
-919 -121 921 0
-829 -66 0
-1051 1053 0
-168 -167 -80 -79 0
-416 -157 0
-390 -161 391 0
-264 -14 265 0
36 498 0
-18 298 0
-793 796 0
-828 -65 0
99 0
-762 -120 0
-978 -153 0
31 419 0
-331 332 0
-58 756 0
-309 91 0
-10 9 0
-977 980 0
-74 73 0
-676 679 0
-69 862 0
-878 -172 879 0
101 190 0
-157 605 0
-638 130 640 0
-574 582 0
-15 280 0
-398 399 0
-564 -42 0
-344 126 346 0
-659 54 661 0
-270 175 0
-62 61 0
-550 -41 552 0
-337 22 339 0
53 685 0
-120 119 0
-521 -38 522 0
-287 18 289 0
-378 28 379 0
-673 -54 675 0
-728 730 0
44 572 0
-854 70 856 0
-906 909 0
-259 162 0
-741 -107 0
-707 709 0
-265 267 0
-30 399 0
-207 208 0
-671 -53 673 0
-108 107 0
21 337 0
-1018 -86 1020 0
70 867 0
-581 46 582 0
-143 494 0
39 534 0
-818 64 820 0
-973 976 0
-707 96 708 0
-390 393 0
-552 560 0
-595 598 0
-575 576 0
-133 400 0
-826 -64 828 0
-637 129 639 0
-712 -95 714 0
-831 -131 0
-317 319 0
-30 412 0
-143 -23 0
-751 120 753 0
-900 901 0
-443 34 444 0
35 477 0
-238 239 0
-25 383 0
-6 216 0
-286 17 288 0
-1054 -153 1055 0
-967 968 0
-980 -153 981 0
-462 466 0
-826 827 0
-953 79 955 0
-897 -100 0
-191 4 193 0
-151 -45 0
63 818 0
-183 2 0
-571 44 573 0
-782 -60 784 0
-846 -68 848 0
-237 12 239 0
-188 189 0
-168 167 0
-587 592 0
-454 -34 456 0
-551 -41 553 0
-650 652 0
-398 -30 0
-125 -15 0
58 744 0
-1033 1036 0
-964 152 965 0
-88 0
-113 -41 0
-799 179 801 0
-645 -51 0
-372 373 0
177 0
53 665 0
-650 -130 0
-877 -172 0
49 631 0
-755 756 0
-94 93 0
50 632 0
-426 114 0
-916 924 0
-439 440 0
-706 96 0
-454 460 0
-579 136 0
-920 926 0
-257 161 259 0
-658 666 0
21 317 0
-482 483 0
-822 823 0
-827 830 0
-443 447 0
-423 425 0
-631 50 633 0
-365 366 0
-224 225 0
-731 -56 733 0
-12 261 0
-384 389 0
-56 712 0
-1011 1014 0
-1046 153 0
-549 550 0
-595 -135 596 0
-752 121 754 0
-292 -16 294 0
-981 -154 0
-68 859 0
-874 875 0
-216 -7 218 0
-733 734 0
-966 154 0
-353 -24 354 0
-612 -172 0
-772 779 0
-1042 89 1044 0
-1058 1059 0
-411 412 0
-538 42 0
-611 -171 0
-304 -18 306 0
-716 -97 718 0
-39 549 0
-475 476 0
-744 59 746 0
-756 759 0
-88 1038 0
-514 521 0
-373 380 0
113 619 0
-416 418 0
-253 13 255 0
-923 -76 924 0
-377 382 0
57 723 0
-874 -70 876 0
-995 109 996 0
-886 98 887 0
-8 221 0
-142 141 0
-596 -136 597 0
-1013 123 1014 0
89 1056 0
-293 -17 295 0
-484 -35 486 0
177 531 0
-1039 -142 0
-997 -82 999 0
-392 -161 393 0
-284 16 286 0
-500 38 502 0
-460 -127 461 0
-609 610 0
-530 531 0
-68 67 0
-934 935 0
-279 112 0
-805 182 0
-413 414 0
-719 56 721 0
-913 914 0
-556 -104 558 0
-272 273 0
-526 -164 527 0
-491 494 0
-471 472 0
-601 -46 0
-350 353 0
-940 -76 942 0
-695 700 0
-675 678 0
-697 -166 699 0
-375 381 0
-629 -115 630 0
-667 146 668 0
-50 623 0
-616 620 0
-339 340 0
-859 862 0
-492 -144 493 0
-218 -8 0
-313 20 315 0
-485 -36 487 0
-538 539 0
19 313 0
-722 724 0
-69 874 0
-543 546 0
-800 804 0
20 314 0
-643 644 0
-848 849 0
-84 1016 0
-735 -58 737 0
-15 292 0
-135 -33 0
-420 111 422 0
-1032 1033 0
-385 386 0
-648 650 0
-258 161 0
-590 591 0
-989 994 0
-128 127 0
167 984 0
-915 916 0
-994 84 995 0
-172 880 0
-993 996 0
-965 153 966 0
-191 192 0
101 0
-1007 85 1009 0
-898 74 900 0
-657 658 0
-688 166 690 0
-501 38 503 0
33 467 0
-879 -173 0
95 707 0
-535 540 0
-200 -5 202 0
-397 -164 0
34 468 0
-385 -27 387 0
-174 173 0
-258 259 0
-1062 -173 0
-519 520 0
-267 -162 0
-80 976 0
-718 -98 0
-520 524 0
-318 101 0
-569 -119 0
23 24 25 26 149 150 151 152 0
-844 845 0
-703 704 0
-42 41 0
-580 137 0
-665 54 666 0
-903 121 0
-252 12 254 0
-325 326 0
-1028 1029 0
-558 -105 0
-907 910 0
-523 527 0
-169 610 0
-586 587 0
-529 38 0
-708 710 0
-542 104 0
-620 115 621 0
79 982 0
-187 188 0
176 0
-630 -116 0
-974 977 0
-954 955 0
-313 314 0
-391 394 0
-724 105 0
-277 111 279 0
-698 -166 0
-497 498 0
-714 -96 716 0
-176 175 0
-696 697 0
-184 91 0
-254 255 0
-54 695 0
-739 -106 741 0
-587 -45 589 0
-941 -77 943 0
-902 76 0
-26 384 0
-579 580 0
-213 149 0
-705 95 0
-758 -60 0
61 797 0
-1006 1007 0
-908 122 909 0
-564 565 0
